# vtk DataFile Version 4.0
vtk output
ASCII
DATASET UNSTRUCTURED_GRID
POINTS 3535 float
1.0000000e+02 1.0000000e+01 1.4000000e+01 
9.9000000e+01 1.0000000e+01 1.4000000e+01 
1.0000000e+02 9.0000000e+00 1.4000000e+01 
9.9000000e+01 9.0000000e+00 1.4000000e+01 
9.8000000e+01 1.0000000e+01 1.4000000e+01 
1.0000000e+02 8.0000000e+00 1.4000000e+01 
9.9000000e+01 8.0000000e+00 1.4000000e+01 
9.8000000e+01 9.0000000e+00 1.4000000e+01 
9.8000000e+01 8.0000000e+00 1.4000000e+01 
9.7000000e+01 1.0000000e+01 1.4000000e+01 
1.0000000e+02 7.0000000e+00 1.4000000e+01 
9.9000000e+01 7.0000000e+00 1.4000000e+01 
9.7000000e+01 9.0000000e+00 1.4000000e+01 
9.8000000e+01 7.0000000e+00 1.4000000e+01 
9.7000000e+01 8.0000000e+00 1.4000000e+01 
9.6000000e+01 1.0000000e+01 1.4000000e+01 
1.0000000e+02 6.0000000e+00 1.4000000e+01 
9.9000000e+01 6.0000000e+00 1.4000000e+01 
9.6000000e+01 9.0000000e+00 1.4000000e+01 
9.7000000e+01 7.0000000e+00 1.4000000e+01 
9.6000000e+01 8.0000000e+00 1.4000000e+01 
9.8000000e+01 6.0000000e+00 1.4000000e+01 
9.6000000e+01 7.0000000e+00 1.4000000e+01 
1.0000000e+02 5.0000000e+00 1.4000000e+01 
9.5000000e+01 1.0000000e+01 1.4000000e+01 
9.7000000e+01 6.0000000e+00 1.4000000e+01 
9.5000000e+01 9.0000000e+00 1.4000000e+01 
9.9000000e+01 5.0000000e+00 1.4000000e+01 
9.8000000e+01 5.0000000e+00 1.4000000e+01 
9.5000000e+01 8.0000000e+00 1.4000000e+01 
9.6000000e+01 6.0000000e+00 1.4000000e+01 
9.5000000e+01 7.0000000e+00 1.4000000e+01 
9.7000000e+01 5.0000000e+00 1.4000000e+01 
1.0000000e+02 4.0000000e+00 1.4000000e+01 
9.4000000e+01 1.0000000e+01 1.4000000e+01 
9.9000000e+01 4.0000000e+00 1.4000000e+01 
9.4000000e+01 9.0000000e+00 1.4000000e+01 
9.4000000e+01 8.0000000e+00 1.4000000e+01 
9.8000000e+01 4.0000000e+00 1.4000000e+01 
9.6000000e+01 5.0000000e+00 1.4000000e+01 
9.5000000e+01 6.0000000e+00 1.4000000e+01 
9.4000000e+01 7.0000000e+00 1.4000000e+01 
9.7000000e+01 4.0000000e+00 1.4000000e+01 
1.0000000e+02 3.0000000e+00 1.4000000e+01 
9.3000000e+01 1.0000000e+01 1.4000000e+01 
9.5000000e+01 5.0000000e+00 1.4000000e+01 
9.9000000e+01 3.0000000e+00 1.4000000e+01 
9.3000000e+01 9.0000000e+00 1.4000000e+01 
9.6000000e+01 4.0000000e+00 1.4000000e+01 
9.4000000e+01 6.0000000e+00 1.4000000e+01 
9.3000000e+01 8.0000000e+00 1.4000000e+01 
9.8000000e+01 3.0000000e+00 1.4000000e+01 
9.3000000e+01 7.0000000e+00 1.4000000e+01 
9.7000000e+01 3.0000000e+00 1.4000000e+01 
9.5000000e+01 4.0000000e+00 1.4000000e+01 
9.4000000e+01 5.0000000e+00 1.4000000e+01 
1.0000000e+02 2.0000000e+00 1.4000000e+01 
9.2000000e+01 1.0000000e+01 1.4000000e+01 
9.6000000e+01 3.0000000e+00 1.4000000e+01 
9.9000000e+01 2.0000000e+00 1.4000000e+01 
9.2000000e+01 9.0000000e+00 1.4000000e+01 
9.3000000e+01 6.0000000e+00 1.4000000e+01 
9.8000000e+01 2.0000000e+00 1.4000000e+01 
9.2000000e+01 8.0000000e+00 1.4000000e+01 
9.4000000e+01 4.0000000e+00 1.4000000e+01 
9.2000000e+01 7.0000000e+00 1.4000000e+01 
9.7000000e+01 2.0000000e+00 1.4000000e+01 
9.3000000e+01 5.0000000e+00 1.4000000e+01 
9.5000000e+01 3.0000000e+00 1.4000000e+01 
9.6000000e+01 2.0000000e+00 1.4000000e+01 
9.2000000e+01 6.0000000e+00 1.4000000e+01 
1.0000000e+02 1.0000000e+00 1.4000000e+01 
9.1000000e+01 1.0000000e+01 1.4000000e+01 
9.9000000e+01 1.0000000e+00 1.4000000e+01 
9.1000000e+01 9.0000000e+00 1.4000000e+01 
9.8000000e+01 1.0000000e+00 1.4000000e+01 
9.3000000e+01 4.0000000e+00 1.4000000e+01 
9.4000000e+01 3.0000000e+00 1.4000000e+01 
9.1000000e+01 8.0000000e+00 1.4000000e+01 
9.5000000e+01 2.0000000e+00 1.4000000e+01 
9.2000000e+01 5.0000000e+00 1.4000000e+01 
9.7000000e+01 1.0000000e+00 1.4000000e+01 
9.1000000e+01 7.0000000e+00 1.4000000e+01 
9.6000000e+01 1.0000000e+00 1.4000000e+01 
9.1000000e+01 6.0000000e+00 1.4000000e+01 
9.3000000e+01 3.0000000e+00 1.4000000e+01 
9.4000000e+01 2.0000000e+00 1.4000000e+01 
1.0000000e+02 0.0000000e+00 1.4000000e+01 
9.0000000e+01 1.0000000e+01 1.4000000e+01 
9.2000000e+01 4.0000000e+00 1.4000000e+01 
9.9000000e+01 0.0000000e+00 1.4000000e+01 
1.0000000e+02 0.0000000e+00 1.3000000e+01 
9.0000000e+01 9.0000000e+00 1.4000000e+01 
9.9000000e+01 0.0000000e+00 1.3000000e+01 
9.8000000e+01 0.0000000e+00 1.4000000e+01 
1.0000000e+02 0.0000000e+00 1.2000000e+01 
9.0000000e+01 8.0000000e+00 1.4000000e+01 
9.8000000e+01 0.0000000e+00 1.3000000e+01 
9.9000000e+01 0.0000000e+00 1.2000000e+01 
9.1000000e+01 5.0000000e+00 1.4000000e+01 
9.5000000e+01 1.0000000e+00 1.4000000e+01 
9.8000000e+01 0.0000000e+00 1.2000000e+01 
9.7000000e+01 0.0000000e+00 1.4000000e+01 
1.0000000e+02 0.0000000e+00 1.1000000e+01 
9.0000000e+01 7.0000000e+00 1.4000000e+01 
9.9000000e+01 0.0000000e+00 1.1000000e+01 
9.7000000e+01 0.0000000e+00 1.3000000e+01 
9.3000000e+01 2.0000000e+00 1.4000000e+01 
9.8000000e+01 0.0000000e+00 1.1000000e+01 
9.7000000e+01 0.0000000e+00 1.2000000e+01 
9.2000000e+01 3.0000000e+00 1.4000000e+01 
9.6000000e+01 0.0000000e+00 1.4000000e+01 
1.0000000e+02 0.0000000e+00 1.0000000e+01 
9.0000000e+01 6.0000000e+00 1.4000000e+01 
9.6000000e+01 0.0000000e+00 1.3000000e+01 
9.9000000e+01 0.0000000e+00 1.0000000e+01 
9.4000000e+01 1.0000000e+00 1.4000000e+01 
9.1000000e+01 4.0000000e+00 1.4000000e+01 
9.7000000e+01 0.0000000e+00 1.1000000e+01 
9.6000000e+01 0.0000000e+00 1.2000000e+01 
9.8000000e+01 0.0000000e+00 1.0000000e+01 
8.9000000e+01 1.0000000e+01 1.4000000e+01 
8.9000000e+01 9.0000000e+00 1.4000000e+01 
9.6000000e+01 0.0000000e+00 1.1000000e+01 
9.5000000e+01 0.0000000e+00 1.4000000e+01 
1.0000000e+02 0.0000000e+00 9.0000000e+00 
9.0000000e+01 5.0000000e+00 1.4000000e+01 
8.9000000e+01 8.0000000e+00 1.4000000e+01 
9.7000000e+01 0.0000000e+00 1.0000000e+01 
9.5000000e+01 0.0000000e+00 1.3000000e+01 
9.9000000e+01 0.0000000e+00 9.0000000e+00 
9.2000000e+01 2.0000000e+00 1.4000000e+01 
9.5000000e+01 0.0000000e+00 1.2000000e+01 
9.8000000e+01 0.0000000e+00 9.0000000e+00 
9.3000000e+01 1.0000000e+00 1.4000000e+01 
9.1000000e+01 3.0000000e+00 1.4000000e+01 
8.9000000e+01 7.0000000e+00 1.4000000e+01 
9.6000000e+01 0.0000000e+00 1.0000000e+01 
9.5000000e+01 0.0000000e+00 1.1000000e+01 
9.7000000e+01 0.0000000e+00 9.0000000e+00 
9.4000000e+01 0.0000000e+00 1.4000000e+01 
1.0000000e+02 0.0000000e+00 8.0000000e+00 
9.0000000e+01 4.0000000e+00 1.4000000e+01 
8.9000000e+01 6.0000000e+00 1.4000000e+01 
9.4000000e+01 0.0000000e+00 1.3000000e+01 
9.9000000e+01 0.0000000e+00 8.0000000e+00 
9.4000000e+01 0.0000000e+00 1.2000000e+01 
9.8000000e+01 0.0000000e+00 8.0000000e+00 
9.6000000e+01 0.0000000e+00 9.0000000e+00 
9.5000000e+01 0.0000000e+00 1.0000000e+01 
8.8000000e+01 1.0000000e+01 1.4000000e+01 
9.4000000e+01 0.0000000e+00 1.1000000e+01 
9.2000000e+01 1.0000000e+00 1.4000000e+01 
8.8000000e+01 9.0000000e+00 1.4000000e+01 
9.7000000e+01 0.0000000e+00 8.0000000e+00 
9.1000000e+01 2.0000000e+00 1.4000000e+01 
8.9000000e+01 5.0000000e+00 1.4000000e+01 
8.8000000e+01 8.0000000e+00 1.4000000e+01 
1.0000000e+02 0.0000000e+00 7.0000000e+00 
9.3000000e+01 0.0000000e+00 1.4000000e+01 
9.0000000e+01 3.0000000e+00 1.4000000e+01 
9.3000000e+01 0.0000000e+00 1.3000000e+01 
9.5000000e+01 0.0000000e+00 9.0000000e+00 
9.9000000e+01 0.0000000e+00 7.0000000e+00 
9.4000000e+01 0.0000000e+00 1.0000000e+01 
9.6000000e+01 0.0000000e+00 8.0000000e+00 
9.8000000e+01 0.0000000e+00 7.0000000e+00 
8.8000000e+01 7.0000000e+00 1.4000000e+01 
9.3000000e+01 0.0000000e+00 1.2000000e+01 
8.9000000e+01 4.0000000e+00 1.4000000e+01 
9.7000000e+01 0.0000000e+00 7.0000000e+00 
9.3000000e+01 0.0000000e+00 1.1000000e+01 
8.8000000e+01 6.0000000e+00 1.4000000e+01 
9.4000000e+01 0.0000000e+00 9.0000000e+00 
9.5000000e+01 0.0000000e+00 8.0000000e+00 
9.1000000e+01 1.0000000e+00 1.4000000e+01 
1.0000000e+02 0.0000000e+00 6.0000000e+00 
9.2000000e+01 0.0000000e+00 1.4000000e+01 
9.0000000e+01 2.0000000e+00 1.4000000e+01 
9.2000000e+01 0.0000000e+00 1.3000000e+01 
9.6000000e+01 0.0000000e+00 7.0000000e+00 
9.3000000e+01 0.0000000e+00 1.0000000e+01 
9.9000000e+01 0.0000000e+00 6.0000000e+00 
9.2000000e+01 0.0000000e+00 1.2000000e+01 
9.8000000e+01 0.0000000e+00 6.0000000e+00 
8.8000000e+01 5.0000000e+00 1.4000000e+01 
8.7000000e+01 1.0000000e+01 1.4000000e+01 
8.9000000e+01 3.0000000e+00 1.4000000e+01 
8.7000000e+01 9.0000000e+00 1.4000000e+01 
9.4000000e+01 0.0000000e+00 8.0000000e+00 
8.7000000e+01 8.0000000e+00 1.4000000e+01 
9.2000000e+01 0.0000000e+00 1.1000000e+01 
9.7000000e+01 0.0000000e+00 6.0000000e+00 
9.3000000e+01 0.0000000e+00 9.0000000e+00 
9.5000000e+01 0.0000000e+00 7.0000000e+00 
8.7000000e+01 7.0000000e+00 1.4000000e+01 
9.6000000e+01 0.0000000e+00 6.0000000e+00 
9.2000000e+01 0.0000000e+00 1.0000000e+01 
8.8000000e+01 4.0000000e+00 1.4000000e+01 
1.0000000e+02 0.0000000e+00 5.0000000e+00 
9.1000000e+01 0.0000000e+00 1.4000000e+01 
9.0000000e+01 1.0000000e+00 1.4000000e+01 
9.1000000e+01 0.0000000e+00 1.3000000e+01 
9.9000000e+01 0.0000000e+00 5.0000000e+00 
9.8000000e+01 0.0000000e+00 5.0000000e+00 
9.4000000e+01 0.0000000e+00 7.0000000e+00 
9.3000000e+01 0.0000000e+00 8.0000000e+00 
8.9000000e+01 2.0000000e+00 1.4000000e+01 
9.1000000e+01 0.0000000e+00 1.2000000e+01 
8.7000000e+01 6.0000000e+00 1.4000000e+01 
9.5000000e+01 0.0000000e+00 6.0000000e+00 
9.2000000e+01 0.0000000e+00 9.0000000e+00 
9.1000000e+01 0.0000000e+00 1.1000000e+01 
9.7000000e+01 0.0000000e+00 5.0000000e+00 
8.8000000e+01 3.0000000e+00 1.4000000e+01 
8.7000000e+01 5.0000000e+00 1.4000000e+01 
1.0000000e+02 1.0000000e+01 0.0000000e+00 
8.6000000e+01 1.0000000e+01 1.4000000e+01 
8.6000000e+01 9.0000000e+00 1.4000000e+01 
1.0000000e+02 9.0000000e+00 0.0000000e+00 
9.9000000e+01 1.0000000e+01 0.0000000e+00 
9.6000000e+01 0.0000000e+00 5.0000000e+00 
9.1000000e+01 0.0000000e+00 1.0000000e+01 
9.3000000e+01 0.0000000e+00 7.0000000e+00 
9.9000000e+01 9.0000000e+00 0.0000000e+00 
9.4000000e+01 0.0000000e+00 6.0000000e+00 
1.0000000e+02 8.0000000e+00 0.0000000e+00 
9.8000000e+01 1.0000000e+01 0.0000000e+00 
1.0000000e+02 0.0000000e+00 4.0000000e+00 
9.0000000e+01 0.0000000e+00 1.4000000e+01 
8.6000000e+01 8.0000000e+00 1.4000000e+01 
9.2000000e+01 0.0000000e+00 8.0000000e+00 
9.0000000e+01 0.0000000e+00 1.3000000e+01 
9.8000000e+01 9.0000000e+00 0.0000000e+00 
9.9000000e+01 8.0000000e+00 0.0000000e+00 
9.9000000e+01 0.0000000e+00 4.0000000e+00 
8.9000000e+01 1.0000000e+00 1.4000000e+01 
9.8000000e+01 0.0000000e+00 4.0000000e+00 
9.8000000e+01 8.0000000e+00 0.0000000e+00 
9.0000000e+01 0.0000000e+00 1.2000000e+01 
8.6000000e+01 7.0000000e+00 1.4000000e+01 
1.0000000e+02 7.0000000e+00 0.0000000e+00 
9.7000000e+01 1.0000000e+01 0.0000000e+00 
8.7000000e+01 4.0000000e+00 1.4000000e+01 
9.5000000e+01 0.0000000e+00 5.0000000e+00 
9.7000000e+01 9.0000000e+00 0.0000000e+00 
9.9000000e+01 7.0000000e+00 0.0000000e+00 
9.1000000e+01 0.0000000e+00 9.0000000e+00 
8.8000000e+01 2.0000000e+00 1.4000000e+01 
9.0000000e+01 0.0000000e+00 1.1000000e+01 
9.7000000e+01 8.0000000e+00 0.0000000e+00 
9.8000000e+01 7.0000000e+00 0.0000000e+00 
9.7000000e+01 0.0000000e+00 4.0000000e+00 
8.6000000e+01 6.0000000e+00 1.4000000e+01 
1.0000000e+02 6.0000000e+00 0.0000000e+00 
9.6000000e+01 1.0000000e+01 0.0000000e+00 
9.3000000e+01 0.0000000e+00 6.0000000e+00 
9.2000000e+01 0.0000000e+00 7.0000000e+00 
9.6000000e+01 9.0000000e+00 0.0000000e+00 
9.9000000e+01 6.0000000e+00 0.0000000e+00 
9.7000000e+01 7.0000000e+00 0.0000000e+00 
9.6000000e+01 8.0000000e+00 0.0000000e+00 
9.6000000e+01 0.0000000e+00 4.0000000e+00 
9.8000000e+01 6.0000000e+00 0.0000000e+00 
9.0000000e+01 0.0000000e+00 1.0000000e+01 
9.4000000e+01 0.0000000e+00 5.0000000e+00 
9.1000000e+01 0.0000000e+00 8.0000000e+00 
8.7000000e+01 3.0000000e+00 1.4000000e+01 
1.0000000e+02 5.0000000e+00 0.0000000e+00 
9.5000000e+01 1.0000000e+01 0.0000000e+00 
1.0000000e+02 0.0000000e+00 3.0000000e+00 
8.9000000e+01 0.0000000e+00 1.4000000e+01 
8.6000000e+01 5.0000000e+00 1.4000000e+01 
9.6000000e+01 7.0000000e+00 0.0000000e+00 
9.7000000e+01 6.0000000e+00 0.0000000e+00 
8.9000000e+01 0.0000000e+00 1.3000000e+01 
9.5000000e+01 9.0000000e+00 0.0000000e+00 
9.9000000e+01 0.0000000e+00 3.0000000e+00 
9.9000000e+01 5.0000000e+00 0.0000000e+00 
9.5000000e+01 0.0000000e+00 4.0000000e+00 
8.5000000e+01 1.0000000e+01 1.4000000e+01 
9.8000000e+01 0.0000000e+00 3.0000000e+00 
9.0000000e+01 0.0000000e+00 9.0000000e+00 
8.8000000e+01 1.0000000e+00 1.4000000e+01 
9.8000000e+01 5.0000000e+00 0.0000000e+00 
9.5000000e+01 8.0000000e+00 0.0000000e+00 
8.9000000e+01 0.0000000e+00 1.2000000e+01 
8.5000000e+01 9.0000000e+00 1.4000000e+01 
9.6000000e+01 6.0000000e+00 0.0000000e+00 
9.2000000e+01 0.0000000e+00 6.0000000e+00 
8.5000000e+01 8.0000000e+00 1.4000000e+01 
9.5000000e+01 7.0000000e+00 0.0000000e+00 
9.1000000e+01 0.0000000e+00 7.0000000e+00 
9.7000000e+01 5.0000000e+00 0.0000000e+00 
9.7000000e+01 0.0000000e+00 3.0000000e+00 
8.9000000e+01 0.0000000e+00 1.1000000e+01 
9.3000000e+01 0.0000000e+00 5.0000000e+00 
8.6000000e+01 4.0000000e+00 1.4000000e+01 
1.0000000e+02 4.0000000e+00 0.0000000e+00 
9.4000000e+01 1.0000000e+01 0.0000000e+00 
8.7000000e+01 2.0000000e+00 1.4000000e+01 
9.4000000e+01 9.0000000e+00 0.0000000e+00 
9.9000000e+01 4.0000000e+00 0.0000000e+00 
8.5000000e+01 7.0000000e+00 1.4000000e+01 
9.4000000e+01 0.0000000e+00 4.0000000e+00 
9.4000000e+01 8.0000000e+00 0.0000000e+00 
9.8000000e+01 4.0000000e+00 0.0000000e+00 
9.0000000e+01 0.0000000e+00 8.0000000e+00 
9.5000000e+01 6.0000000e+00 0.0000000e+00 
9.6000000e+01 5.0000000e+00 0.0000000e+00 
9.6000000e+01 0.0000000e+00 3.0000000e+00 
8.9000000e+01 0.0000000e+00 1.0000000e+01 
9.4000000e+01 7.0000000e+00 0.0000000e+00 
8.5000000e+01 6.0000000e+00 1.4000000e+01 
9.7000000e+01 4.0000000e+00 0.0000000e+00 
1.0000000e+02 0.0000000e+00 2.0000000e+00 
8.8000000e+01 0.0000000e+00 1.4000000e+01 
9.1000000e+01 0.0000000e+00 6.0000000e+00 
9.9000000e+01 0.0000000e+00 2.0000000e+00 
1.0000000e+02 3.0000000e+00 0.0000000e+00 
9.3000000e+01 1.0000000e+01 0.0000000e+00 
9.2000000e+01 0.0000000e+00 5.0000000e+00 
8.8000000e+01 0.0000000e+00 1.3000000e+01 
8.6000000e+01 3.0000000e+00 1.4000000e+01 
8.9000000e+01 0.0000000e+00 9.0000000e+00 
9.5000000e+01 5.0000000e+00 0.0000000e+00 
9.3000000e+01 9.0000000e+00 0.0000000e+00 
9.5000000e+01 0.0000000e+00 3.0000000e+00 
9.9000000e+01 3.0000000e+00 0.0000000e+00 
8.8000000e+01 0.0000000e+00 1.2000000e+01 
9.4000000e+01 6.0000000e+00 0.0000000e+00 
9.8000000e+01 0.0000000e+00 2.0000000e+00 
9.6000000e+01 4.0000000e+00 0.0000000e+00 
9.8000000e+01 3.0000000e+00 0.0000000e+00 
9.0000000e+01 0.0000000e+00 7.0000000e+00 
9.3000000e+01 8.0000000e+00 0.0000000e+00 
9.3000000e+01 0.0000000e+00 4.0000000e+00 
8.7000000e+01 1.0000000e+00 1.4000000e+01 
8.5000000e+01 5.0000000e+00 1.4000000e+01 
9.7000000e+01 0.0000000e+00 2.0000000e+00 
8.8000000e+01 0.0000000e+00 1.1000000e+01 
9.3000000e+01 7.0000000e+00 0.0000000e+00 
9.7000000e+01 3.0000000e+00 0.0000000e+00 
8.4000000e+01 1.0000000e+01 1.4000000e+01 
9.4000000e+01 5.0000000e+00 0.0000000e+00 
9.5000000e+01 4.0000000e+00 0.0000000e+00 
9.4000000e+01 0.0000000e+00 3.0000000e+00 
8.4000000e+01 9.0000000e+00 1.4000000e+01 
8.9000000e+01 0.0000000e+00 8.0000000e+00 
1.0000000e+02 2.0000000e+00 0.0000000e+00 
9.2000000e+01 1.0000000e+01 0.0000000e+00 
9.6000000e+01 0.0000000e+00 2.0000000e+00 
8.8000000e+01 0.0000000e+00 1.0000000e+01 
8.6000000e+01 2.0000000e+00 1.4000000e+01 
8.4000000e+01 8.0000000e+00 1.4000000e+01 
9.3000000e+01 6.0000000e+00 0.0000000e+00 
9.6000000e+01 3.0000000e+00 0.0000000e+00 
9.2000000e+01 9.0000000e+00 0.0000000e+00 
9.9000000e+01 2.0000000e+00 0.0000000e+00 
8.5000000e+01 4.0000000e+00 1.4000000e+01 
9.1000000e+01 0.0000000e+00 5.0000000e+00 
9.2000000e+01 8.0000000e+00 0.0000000e+00 
9.8000000e+01 2.0000000e+00 0.0000000e+00 
9.2000000e+01 0.0000000e+00 4.0000000e+00 
9.0000000e+01 0.0000000e+00 6.0000000e+00 
8.4000000e+01 7.0000000e+00 1.4000000e+01 
9.4000000e+01 4.0000000e+00 0.0000000e+00 
8.8000000e+01 0.0000000e+00 9.0000000e+00 
1.0000000e+02 0.0000000e+00 1.0000000e+00 
8.7000000e+01 0.0000000e+00 1.4000000e+01 
9.2000000e+01 7.0000000e+00 0.0000000e+00 
9.5000000e+01 0.0000000e+00 2.0000000e+00 
9.7000000e+01 2.0000000e+00 0.0000000e+00 
8.7000000e+01 0.0000000e+00 1.3000000e+01 
9.5000000e+01 3.0000000e+00 0.0000000e+00 
8.9000000e+01 0.0000000e+00 7.0000000e+00 
9.3000000e+01 5.0000000e+00 0.0000000e+00 
9.3000000e+01 0.0000000e+00 3.0000000e+00 
9.9000000e+01 0.0000000e+00 1.0000000e+00 
8.4000000e+01 6.0000000e+00 1.4000000e+01 
8.7000000e+01 0.0000000e+00 1.2000000e+01 
9.8000000e+01 0.0000000e+00 1.0000000e+00 
8.5000000e+01 3.0000000e+00 1.4000000e+01 
9.6000000e+01 2.0000000e+00 0.0000000e+00 
9.2000000e+01 6.0000000e+00 0.0000000e+00 
1.0000000e+02 1.0000000e+00 0.0000000e+00 
9.1000000e+01 1.0000000e+01 0.0000000e+00 
8.6000000e+01 1.0000000e+00 1.4000000e+01 
9.7000000e+01 0.0000000e+00 1.0000000e+00 
9.9000000e+01 1.0000000e+00 0.0000000e+00 
9.1000000e+01 9.0000000e+00 0.0000000e+00 
8.7000000e+01 0.0000000e+00 1.1000000e+01 
9.4000000e+01 0.0000000e+00 2.0000000e+00 
8.8000000e+01 0.0000000e+00 8.0000000e+00 
9.3000000e+01 4.0000000e+00 0.0000000e+00 
9.8000000e+01 1.0000000e+00 0.0000000e+00 
8.4000000e+01 5.0000000e+00 1.4000000e+01 
9.4000000e+01 3.0000000e+00 0.0000000e+00 
9.1000000e+01 8.0000000e+00 0.0000000e+00 
9.1000000e+01 0.0000000e+00 4.0000000e+00 
9.0000000e+01 0.0000000e+00 5.0000000e+00 
8.9000000e+01 0.0000000e+00 6.0000000e+00 
8.7000000e+01 0.0000000e+00 1.0000000e+01 
9.5000000e+01 2.0000000e+00 0.0000000e+00 
9.2000000e+01 5.0000000e+00 0.0000000e+00 
9.2000000e+01 0.0000000e+00 3.0000000e+00 
9.6000000e+01 0.0000000e+00 1.0000000e+00 
9.1000000e+01 7.0000000e+00 0.0000000e+00 
9.7000000e+01 1.0000000e+00 0.0000000e+00 
8.5000000e+01 2.0000000e+00 1.4000000e+01 
8.3000000e+01 1.0000000e+01 1.4000000e+01 
8.3000000e+01 9.0000000e+00 1.4000000e+01 
8.4000000e+01 4.0000000e+00 1.4000000e+01 
9.3000000e+01 0.0000000e+00 2.0000000e+00 
9.6000000e+01 1.0000000e+00 0.0000000e+00 
8.8000000e+01 0.0000000e+00 7.0000000e+00 
9.1000000e+01 6.0000000e+00 0.0000000e+00 
8.3000000e+01 8.0000000e+00 1.4000000e+01 
8.7000000e+01 0.0000000e+00 9.0000000e+00 
9.3000000e+01 3.0000000e+00 0.0000000e+00 
9.5000000e+01 0.0000000e+00 1.0000000e+00 
1.0000000e+02 0.0000000e+00 0.0000000e+00 
9.0000000e+01 1.0000000e+01 0.0000000e+00 
8.6000000e+01 0.0000000e+00 1.4000000e+01 
9.4000000e+01 2.0000000e+00 0.0000000e+00 
9.2000000e+01 4.0000000e+00 0.0000000e+00 
9.9000000e+01 0.0000000e+00 0.0000000e+00 
9.0000000e+01 9.0000000e+00 0.0000000e+00 
8.6000000e+01 0.0000000e+00 1.3000000e+01 
8.3000000e+01 7.0000000e+00 1.4000000e+01 
8.6000000e+01 0.0000000e+00 1.2000000e+01 
9.8000000e+01 0.0000000e+00 0.0000000e+00 
9.0000000e+01 8.0000000e+00 0.0000000e+00 
9.0000000e+01 0.0000000e+00 4.0000000e+00 
9.5000000e+01 1.0000000e+00 0.0000000e+00 
9.1000000e+01 5.0000000e+00 0.0000000e+00 
9.1000000e+01 0.0000000e+00 3.0000000e+00 
8.9000000e+01 0.0000000e+00 5.0000000e+00 
9.7000000e+01 0.0000000e+00 0.0000000e+00 
9.4000000e+01 0.0000000e+00 1.0000000e+00 
8.6000000e+01 0.0000000e+00 1.1000000e+01 
8.3000000e+01 6.0000000e+00 1.4000000e+01 
9.0000000e+01 7.0000000e+00 0.0000000e+00 
8.7000000e+01 0.0000000e+00 8.0000000e+00 
8.4000000e+01 3.0000000e+00 1.4000000e+01 
8.5000000e+01 1.0000000e+00 1.4000000e+01 
8.8000000e+01 0.0000000e+00 6.0000000e+00 
9.2000000e+01 0.0000000e+00 2.0000000e+00 
9.3000000e+01 2.0000000e+00 0.0000000e+00 
9.2000000e+01 3.0000000e+00 0.0000000e+00 
8.6000000e+01 0.0000000e+00 1.0000000e+01 
9.6000000e+01 0.0000000e+00 0.0000000e+00 
9.0000000e+01 6.0000000e+00 0.0000000e+00 
9.4000000e+01 1.0000000e+00 0.0000000e+00 
9.1000000e+01 4.0000000e+00 0.0000000e+00 
8.3000000e+01 5.0000000e+00 1.4000000e+01 
8.9000000e+01 1.0000000e+01 0.0000000e+00 
9.3000000e+01 0.0000000e+00 1.0000000e+00 
8.7000000e+01 0.0000000e+00 7.0000000e+00 
8.9000000e+01 9.0000000e+00 0.0000000e+00 
8.4000000e+01 2.0000000e+00 1.4000000e+01 
9.0000000e+01 5.0000000e+00 0.0000000e+00 
9.5000000e+01 0.0000000e+00 0.0000000e+00 
8.9000000e+01 8.0000000e+00 0.0000000e+00 
9.0000000e+01 0.0000000e+00 3.0000000e+00 
8.9000000e+01 0.0000000e+00 4.0000000e+00 
8.6000000e+01 0.0000000e+00 9.0000000e+00 
8.2000000e+01 1.0000000e+01 1.4000000e+01 
9.2000000e+01 2.0000000e+00 0.0000000e+00 
8.8000000e+01 0.0000000e+00 5.0000000e+00 
8.5000000e+01 0.0000000e+00 1.4000000e+01 
8.3000000e+01 4.0000000e+00 1.4000000e+01 
8.2000000e+01 9.0000000e+00 1.4000000e+01 
9.1000000e+01 0.0000000e+00 2.0000000e+00 
9.3000000e+01 1.0000000e+00 0.0000000e+00 
8.9000000e+01 7.0000000e+00 0.0000000e+00 
9.1000000e+01 3.0000000e+00 0.0000000e+00 
8.5000000e+01 0.0000000e+00 1.3000000e+01 
8.2000000e+01 8.0000000e+00 1.4000000e+01 
8.5000000e+01 0.0000000e+00 1.2000000e+01 
9.4000000e+01 0.0000000e+00 0.0000000e+00 
9.0000000e+01 4.0000000e+00 0.0000000e+00 
8.6000000e+01 0.0000000e+00 8.0000000e+00 
8.7000000e+01 0.0000000e+00 6.0000000e+00 
8.9000000e+01 6.0000000e+00 0.0000000e+00 
9.2000000e+01 0.0000000e+00 1.0000000e+00 
8.2000000e+01 7.0000000e+00 1.4000000e+01 
8.5000000e+01 0.0000000e+00 1.1000000e+01 
8.4000000e+01 1.0000000e+00 1.4000000e+01 
8.3000000e+01 3.0000000e+00 1.4000000e+01 
8.8000000e+01 1.0000000e+01 0.0000000e+00 
8.2000000e+01 6.0000000e+00 1.4000000e+01 
8.5000000e+01 0.0000000e+00 1.0000000e+01 
8.8000000e+01 9.0000000e+00 0.0000000e+00 
9.2000000e+01 1.0000000e+00 0.0000000e+00 
9.1000000e+01 2.0000000e+00 0.0000000e+00 
8.9000000e+01 5.0000000e+00 0.0000000e+00 
8.9000000e+01 0.0000000e+00 3.0000000e+00 
8.8000000e+01 0.0000000e+00 4.0000000e+00 
9.0000000e+01 0.0000000e+00 2.0000000e+00 
8.8000000e+01 8.0000000e+00 0.0000000e+00 
9.0000000e+01 3.0000000e+00 0.0000000e+00 
9.3000000e+01 0.0000000e+00 0.0000000e+00 
8.6000000e+01 0.0000000e+00 7.0000000e+00 
8.2000000e+01 5.0000000e+00 1.4000000e+01 
8.8000000e+01 7.0000000e+00 0.0000000e+00 
8.5000000e+01 0.0000000e+00 9.0000000e+00 
8.7000000e+01 0.0000000e+00 5.0000000e+00 
9.1000000e+01 0.0000000e+00 1.0000000e+00 
8.9000000e+01 4.0000000e+00 0.0000000e+00 
8.3000000e+01 2.0000000e+00 1.4000000e+01 
8.4000000e+01 0.0000000e+00 1.4000000e+01 
8.8000000e+01 6.0000000e+00 0.0000000e+00 
8.4000000e+01 0.0000000e+00 1.3000000e+01 
9.1000000e+01 1.0000000e+00 0.0000000e+00 
8.4000000e+01 0.0000000e+00 1.2000000e+01 
9.2000000e+01 0.0000000e+00 0.0000000e+00 
9.0000000e+01 2.0000000e+00 0.0000000e+00 
8.6000000e+01 0.0000000e+00 6.0000000e+00 
8.2000000e+01 4.0000000e+00 1.4000000e+01 
8.1000000e+01 1.0000000e+01 1.4000000e+01 
8.5000000e+01 0.0000000e+00 8.0000000e+00 
8.1000000e+01 9.0000000e+00 1.4000000e+01 
8.4000000e+01 0.0000000e+00 1.1000000e+01 
8.7000000e+01 1.0000000e+01 0.0000000e+00 
8.8000000e+01 5.0000000e+00 0.0000000e+00 
8.8000000e+01 0.0000000e+00 3.0000000e+00 
8.9000000e+01 0.0000000e+00 2.0000000e+00 
8.1000000e+01 8.0000000e+00 1.4000000e+01 
8.7000000e+01 9.0000000e+00 0.0000000e+00 
8.9000000e+01 3.0000000e+00 0.0000000e+00 
8.7000000e+01 8.0000000e+00 0.0000000e+00 
8.7000000e+01 0.0000000e+00 4.0000000e+00 
9.0000000e+01 0.0000000e+00 1.0000000e+00 
8.1000000e+01 7.0000000e+00 1.4000000e+01 
8.3000000e+01 1.0000000e+00 1.4000000e+01 
8.4000000e+01 0.0000000e+00 1.0000000e+01 
8.2000000e+01 3.0000000e+00 1.4000000e+01 
8.7000000e+01 7.0000000e+00 0.0000000e+00 
8.5000000e+01 0.0000000e+00 7.0000000e+00 
8.8000000e+01 4.0000000e+00 0.0000000e+00 
8.6000000e+01 0.0000000e+00 5.0000000e+00 
9.1000000e+01 0.0000000e+00 0.0000000e+00 
9.0000000e+01 1.0000000e+00 0.0000000e+00 
8.1000000e+01 6.0000000e+00 1.4000000e+01 
8.7000000e+01 6.0000000e+00 0.0000000e+00 
8.4000000e+01 0.0000000e+00 9.0000000e+00 
8.9000000e+01 2.0000000e+00 0.0000000e+00 
8.1000000e+01 5.0000000e+00 1.4000000e+01 
8.8000000e+01 0.0000000e+00 2.0000000e+00 
8.2000000e+01 2.0000000e+00 1.4000000e+01 
8.3000000e+01 0.0000000e+00 1.4000000e+01 
8.8000000e+01 3.0000000e+00 0.0000000e+00 
8.5000000e+01 0.0000000e+00 6.0000000e+00 
8.3000000e+01 0.0000000e+00 1.3000000e+01 
8.7000000e+01 5.0000000e+00 0.0000000e+00 
8.7000000e+01 0.0000000e+00 3.0000000e+00 
8.9000000e+01 0.0000000e+00 1.0000000e+00 
8.6000000e+01 1.0000000e+01 0.0000000e+00 
8.4000000e+01 0.0000000e+00 8.0000000e+00 
8.6000000e+01 9.0000000e+00 0.0000000e+00 
8.3000000e+01 0.0000000e+00 1.2000000e+01 
8.6000000e+01 0.0000000e+00 4.0000000e+00 
9.0000000e+01 0.0000000e+00 0.0000000e+00 
8.6000000e+01 8.0000000e+00 0.0000000e+00 
8.1000000e+01 4.0000000e+00 1.4000000e+01 
8.3000000e+01 0.0000000e+00 1.1000000e+01 
8.9000000e+01 1.0000000e+00 0.0000000e+00 
8.0000000e+01 1.0000000e+01 1.4000000e+01 
8.0000000e+01 9.0000000e+00 1.4000000e+01 
8.7000000e+01 4.0000000e+00 0.0000000e+00 
8.6000000e+01 7.0000000e+00 0.0000000e+00 
8.8000000e+01 2.0000000e+00 0.0000000e+00 
8.0000000e+01 8.0000000e+00 1.4000000e+01 
8.4000000e+01 0.0000000e+00 7.0000000e+00 
8.2000000e+01 1.0000000e+00 1.4000000e+01 
8.3000000e+01 0.0000000e+00 1.0000000e+01 
8.5000000e+01 0.0000000e+00 5.0000000e+00 
8.6000000e+01 6.0000000e+00 0.0000000e+00 
8.0000000e+01 7.0000000e+00 1.4000000e+01 
8.1000000e+01 3.0000000e+00 1.4000000e+01 
8.7000000e+01 0.0000000e+00 2.0000000e+00 
8.8000000e+01 0.0000000e+00 1.0000000e+00 
8.3000000e+01 0.0000000e+00 9.0000000e+00 
8.7000000e+01 3.0000000e+00 0.0000000e+00 
8.0000000e+01 6.0000000e+00 1.4000000e+01 
8.6000000e+01 5.0000000e+00 0.0000000e+00 
8.6000000e+01 0.0000000e+00 3.0000000e+00 
8.9000000e+01 0.0000000e+00 0.0000000e+00 
8.4000000e+01 0.0000000e+00 6.0000000e+00 
8.5000000e+01 1.0000000e+01 0.0000000e+00 
8.8000000e+01 1.0000000e+00 0.0000000e+00 
8.5000000e+01 9.0000000e+00 0.0000000e+00 
8.2000000e+01 0.0000000e+00 1.4000000e+01 
8.5000000e+01 0.0000000e+00 4.0000000e+00 
8.0000000e+01 5.0000000e+00 1.4000000e+01 
8.2000000e+01 0.0000000e+00 1.3000000e+01 
8.5000000e+01 8.0000000e+00 0.0000000e+00 
8.3000000e+01 0.0000000e+00 8.0000000e+00 
8.1000000e+01 2.0000000e+00 1.4000000e+01 
8.6000000e+01 4.0000000e+00 0.0000000e+00 
8.2000000e+01 0.0000000e+00 1.2000000e+01 
8.7000000e+01 2.0000000e+00 0.0000000e+00 
8.5000000e+01 7.0000000e+00 0.0000000e+00 
8.2000000e+01 0.0000000e+00 1.1000000e+01 
8.0000000e+01 4.0000000e+00 1.4000000e+01 
8.4000000e+01 0.0000000e+00 5.0000000e+00 
8.5000000e+01 6.0000000e+00 0.0000000e+00 
8.3000000e+01 0.0000000e+00 7.0000000e+00 
8.7000000e+01 0.0000000e+00 1.0000000e+00 
8.8000000e+01 0.0000000e+00 0.0000000e+00 
8.2000000e+01 0.0000000e+00 1.0000000e+01 
8.6000000e+01 0.0000000e+00 2.0000000e+00 
8.6000000e+01 3.0000000e+00 0.0000000e+00 
7.9000000e+01 1.0000000e+01 1.4000000e+01 
8.1000000e+01 1.0000000e+00 1.4000000e+01 
7.9000000e+01 9.0000000e+00 1.4000000e+01 
7.9000000e+01 8.0000000e+00 1.4000000e+01 
8.5000000e+01 0.0000000e+00 3.0000000e+00 
8.7000000e+01 1.0000000e+00 0.0000000e+00 
8.5000000e+01 5.0000000e+00 0.0000000e+00 
8.2000000e+01 0.0000000e+00 9.0000000e+00 
8.0000000e+01 3.0000000e+00 1.4000000e+01 
7.9000000e+01 7.0000000e+00 1.4000000e+01 
8.4000000e+01 1.0000000e+01 0.0000000e+00 
8.3000000e+01 0.0000000e+00 6.0000000e+00 
8.4000000e+01 9.0000000e+00 0.0000000e+00 
8.4000000e+01 8.0000000e+00 0.0000000e+00 
8.6000000e+01 2.0000000e+00 0.0000000e+00 
8.4000000e+01 0.0000000e+00 4.0000000e+00 
8.5000000e+01 4.0000000e+00 0.0000000e+00 
7.9000000e+01 6.0000000e+00 1.4000000e+01 
8.2000000e+01 0.0000000e+00 8.0000000e+00 
8.4000000e+01 7.0000000e+00 0.0000000e+00 
8.1000000e+01 0.0000000e+00 1.4000000e+01 
8.1000000e+01 0.0000000e+00 1.3000000e+01 
8.0000000e+01 2.0000000e+00 1.4000000e+01 
8.7000000e+01 0.0000000e+00 0.0000000e+00 
8.6000000e+01 0.0000000e+00 1.0000000e+00 
8.1000000e+01 0.0000000e+00 1.2000000e+01 
7.9000000e+01 5.0000000e+00 1.4000000e+01 
8.4000000e+01 6.0000000e+00 0.0000000e+00 
8.5000000e+01 0.0000000e+00 2.0000000e+00 
8.5000000e+01 3.0000000e+00 0.0000000e+00 
8.3000000e+01 0.0000000e+00 5.0000000e+00 
8.1000000e+01 0.0000000e+00 1.1000000e+01 
8.2000000e+01 0.0000000e+00 7.0000000e+00 
8.6000000e+01 1.0000000e+00 0.0000000e+00 
8.4000000e+01 5.0000000e+00 0.0000000e+00 
8.1000000e+01 0.0000000e+00 1.0000000e+01 
8.4000000e+01 0.0000000e+00 3.0000000e+00 
7.9000000e+01 4.0000000e+00 1.4000000e+01 
8.0000000e+01 1.0000000e+00 1.4000000e+01 
7.8000000e+01 1.0000000e+01 1.4000000e+01 
8.3000000e+01 1.0000000e+01 0.0000000e+00 
8.5000000e+01 2.0000000e+00 0.0000000e+00 
7.8000000e+01 9.0000000e+00 1.4000000e+01 
8.1000000e+01 0.0000000e+00 9.0000000e+00 
8.3000000e+01 9.0000000e+00 0.0000000e+00 
8.2000000e+01 0.0000000e+00 6.0000000e+00 
7.8000000e+01 8.0000000e+00 1.4000000e+01 
8.4000000e+01 4.0000000e+00 0.0000000e+00 
8.3000000e+01 8.0000000e+00 0.0000000e+00 
8.3000000e+01 0.0000000e+00 4.0000000e+00 
7.9000000e+01 3.0000000e+00 1.4000000e+01 
8.6000000e+01 0.0000000e+00 0.0000000e+00 
7.8000000e+01 7.0000000e+00 1.4000000e+01 
8.5000000e+01 0.0000000e+00 1.0000000e+00 
8.3000000e+01 7.0000000e+00 0.0000000e+00 
8.1000000e+01 0.0000000e+00 8.0000000e+00 
8.0000000e+01 0.0000000e+00 1.4000000e+01 
7.8000000e+01 6.0000000e+00 1.4000000e+01 
8.4000000e+01 0.0000000e+00 2.0000000e+00 
8.4000000e+01 3.0000000e+00 0.0000000e+00 
8.0000000e+01 0.0000000e+00 1.3000000e+01 
8.3000000e+01 6.0000000e+00 0.0000000e+00 
8.5000000e+01 1.0000000e+00 0.0000000e+00 
8.0000000e+01 0.0000000e+00 1.2000000e+01 
7.9000000e+01 2.0000000e+00 1.4000000e+01 
8.2000000e+01 0.0000000e+00 5.0000000e+00 
7.8000000e+01 5.0000000e+00 1.4000000e+01 
8.0000000e+01 0.0000000e+00 1.1000000e+01 
8.1000000e+01 0.0000000e+00 7.0000000e+00 
8.3000000e+01 5.0000000e+00 0.0000000e+00 
8.3000000e+01 0.0000000e+00 3.0000000e+00 
8.4000000e+01 2.0000000e+00 0.0000000e+00 
8.0000000e+01 0.0000000e+00 1.0000000e+01 
8.2000000e+01 1.0000000e+01 0.0000000e+00 
7.8000000e+01 4.0000000e+00 1.4000000e+01 
8.5000000e+01 0.0000000e+00 0.0000000e+00 
8.2000000e+01 9.0000000e+00 0.0000000e+00 
8.3000000e+01 4.0000000e+00 0.0000000e+00 
7.9000000e+01 1.0000000e+00 1.4000000e+01 
8.2000000e+01 8.0000000e+00 0.0000000e+00 
8.2000000e+01 0.0000000e+00 4.0000000e+00 
8.4000000e+01 0.0000000e+00 1.0000000e+00 
8.1000000e+01 0.0000000e+00 6.0000000e+00 
8.0000000e+01 0.0000000e+00 9.0000000e+00 
7.7000000e+01 1.0000000e+01 1.4000000e+01 
8.2000000e+01 7.0000000e+00 0.0000000e+00 
7.7000000e+01 9.0000000e+00 1.4000000e+01 
8.3000000e+01 0.0000000e+00 2.0000000e+00 
7.8000000e+01 3.0000000e+00 1.4000000e+01 
7.7000000e+01 8.0000000e+00 1.4000000e+01 
8.4000000e+01 1.0000000e+00 0.0000000e+00 
8.3000000e+01 3.0000000e+00 0.0000000e+00 
8.2000000e+01 6.0000000e+00 0.0000000e+00 
8.0000000e+01 0.0000000e+00 8.0000000e+00 
7.7000000e+01 7.0000000e+00 1.4000000e+01 
7.9000000e+01 0.0000000e+00 1.4000000e+01 
7.9000000e+01 0.0000000e+00 1.3000000e+01 
8.1000000e+01 0.0000000e+00 5.0000000e+00 
7.7000000e+01 6.0000000e+00 1.4000000e+01 
8.2000000e+01 5.0000000e+00 0.0000000e+00 
8.2000000e+01 0.0000000e+00 3.0000000e+00 
7.9000000e+01 0.0000000e+00 1.2000000e+01 
7.8000000e+01 2.0000000e+00 1.4000000e+01 
8.0000000e+01 0.0000000e+00 7.0000000e+00 
8.3000000e+01 2.0000000e+00 0.0000000e+00 
7.9000000e+01 0.0000000e+00 1.1000000e+01 
8.4000000e+01 0.0000000e+00 0.0000000e+00 
7.7000000e+01 5.0000000e+00 1.4000000e+01 
8.2000000e+01 4.0000000e+00 0.0000000e+00 
8.1000000e+01 1.0000000e+01 0.0000000e+00 
7.9000000e+01 0.0000000e+00 1.0000000e+01 
8.1000000e+01 9.0000000e+00 0.0000000e+00 
8.3000000e+01 0.0000000e+00 1.0000000e+00 
8.1000000e+01 8.0000000e+00 0.0000000e+00 
8.1000000e+01 0.0000000e+00 4.0000000e+00 
8.0000000e+01 0.0000000e+00 6.0000000e+00 
7.8000000e+01 1.0000000e+00 1.4000000e+01 
7.7000000e+01 4.0000000e+00 1.4000000e+01 
8.1000000e+01 7.0000000e+00 0.0000000e+00 
8.3000000e+01 1.0000000e+00 0.0000000e+00 
7.9000000e+01 0.0000000e+00 9.0000000e+00 
8.2000000e+01 0.0000000e+00 2.0000000e+00 
8.2000000e+01 3.0000000e+00 0.0000000e+00 
8.1000000e+01 6.0000000e+00 0.0000000e+00 
7.6000000e+01 1.0000000e+01 1.4000000e+01 
7.6000000e+01 9.0000000e+00 1.4000000e+01 
7.9000000e+01 0.0000000e+00 8.0000000e+00 
7.7000000e+01 3.0000000e+00 1.4000000e+01 
7.6000000e+01 8.0000000e+00 1.4000000e+01 
8.0000000e+01 0.0000000e+00 5.0000000e+00 
8.1000000e+01 5.0000000e+00 0.0000000e+00 
8.1000000e+01 0.0000000e+00 3.0000000e+00 
7.8000000e+01 0.0000000e+00 1.4000000e+01 
8.2000000e+01 2.0000000e+00 0.0000000e+00 
8.3000000e+01 0.0000000e+00 0.0000000e+00 
7.8000000e+01 0.0000000e+00 1.3000000e+01 
7.6000000e+01 7.0000000e+00 1.4000000e+01 
7.8000000e+01 0.0000000e+00 1.2000000e+01 
7.9000000e+01 0.0000000e+00 7.0000000e+00 
7.6000000e+01 6.0000000e+00 1.4000000e+01 
8.1000000e+01 4.0000000e+00 0.0000000e+00 
7.8000000e+01 0.0000000e+00 1.1000000e+01 
7.7000000e+01 2.0000000e+00 1.4000000e+01 
8.2000000e+01 0.0000000e+00 1.0000000e+00 
8.0000000e+01 1.0000000e+01 0.0000000e+00 
8.0000000e+01 9.0000000e+00 0.0000000e+00 
8.0000000e+01 0.0000000e+00 4.0000000e+00 
7.8000000e+01 0.0000000e+00 1.0000000e+01 
8.0000000e+01 8.0000000e+00 0.0000000e+00 
8.2000000e+01 1.0000000e+00 0.0000000e+00 
7.6000000e+01 5.0000000e+00 1.4000000e+01 
8.0000000e+01 7.0000000e+00 0.0000000e+00 
7.9000000e+01 0.0000000e+00 6.0000000e+00 
8.1000000e+01 0.0000000e+00 2.0000000e+00 
8.1000000e+01 3.0000000e+00 0.0000000e+00 
7.8000000e+01 0.0000000e+00 9.0000000e+00 
7.7000000e+01 1.0000000e+00 1.4000000e+01 
8.0000000e+01 6.0000000e+00 0.0000000e+00 
7.6000000e+01 4.0000000e+00 1.4000000e+01 
8.2000000e+01 0.0000000e+00 0.0000000e+00 
7.8000000e+01 0.0000000e+00 8.0000000e+00 
8.0000000e+01 5.0000000e+00 0.0000000e+00 
8.1000000e+01 2.0000000e+00 0.0000000e+00 
8.0000000e+01 0.0000000e+00 3.0000000e+00 
7.9000000e+01 0.0000000e+00 5.0000000e+00 
7.5000000e+01 1.0000000e+01 1.4000000e+01 
7.6000000e+01 3.0000000e+00 1.4000000e+01 
7.5000000e+01 9.0000000e+00 1.4000000e+01 
7.5000000e+01 8.0000000e+00 1.4000000e+01 
7.7000000e+01 0.0000000e+00 1.4000000e+01 
7.7000000e+01 0.0000000e+00 1.3000000e+01 
8.1000000e+01 0.0000000e+00 1.0000000e+00 
8.0000000e+01 4.0000000e+00 0.0000000e+00 
7.8000000e+01 0.0000000e+00 7.0000000e+00 
7.7000000e+01 0.0000000e+00 1.2000000e+01 
7.5000000e+01 7.0000000e+00 1.4000000e+01 
7.9000000e+01 1.0000000e+01 0.0000000e+00 
7.7000000e+01 0.0000000e+00 1.1000000e+01 
8.1000000e+01 1.0000000e+00 0.0000000e+00 
7.9000000e+01 9.0000000e+00 0.0000000e+00 
7.6000000e+01 2.0000000e+00 1.4000000e+01 
7.9000000e+01 8.0000000e+00 0.0000000e+00 
7.5000000e+01 6.0000000e+00 1.4000000e+01 
7.9000000e+01 0.0000000e+00 4.0000000e+00 
8.0000000e+01 0.0000000e+00 2.0000000e+00 
8.0000000e+01 3.0000000e+00 0.0000000e+00 
7.7000000e+01 0.0000000e+00 1.0000000e+01 
7.9000000e+01 7.0000000e+00 0.0000000e+00 
7.8000000e+01 0.0000000e+00 6.0000000e+00 
7.5000000e+01 5.0000000e+00 1.4000000e+01 
7.9000000e+01 6.0000000e+00 0.0000000e+00 
7.7000000e+01 0.0000000e+00 9.0000000e+00 
8.1000000e+01 0.0000000e+00 0.0000000e+00 
7.6000000e+01 1.0000000e+00 1.4000000e+01 
8.0000000e+01 2.0000000e+00 0.0000000e+00 
7.5000000e+01 4.0000000e+00 1.4000000e+01 
7.9000000e+01 5.0000000e+00 0.0000000e+00 
7.9000000e+01 0.0000000e+00 3.0000000e+00 
7.8000000e+01 0.0000000e+00 5.0000000e+00 
7.7000000e+01 0.0000000e+00 8.0000000e+00 
8.0000000e+01 0.0000000e+00 1.0000000e+00 
7.9000000e+01 4.0000000e+00 0.0000000e+00 
7.5000000e+01 3.0000000e+00 1.4000000e+01 
7.6000000e+01 0.0000000e+00 1.4000000e+01 
7.4000000e+01 1.0000000e+01 1.4000000e+01 
8.0000000e+01 1.0000000e+00 0.0000000e+00 
7.6000000e+01 0.0000000e+00 1.3000000e+01 
7.4000000e+01 9.0000000e+00 1.4000000e+01 
7.7000000e+01 0.0000000e+00 7.0000000e+00 
7.4000000e+01 8.0000000e+00 1.4000000e+01 
7.6000000e+01 0.0000000e+00 1.2000000e+01 
7.8000000e+01 1.0000000e+01 0.0000000e+00 
7.8000000e+01 9.0000000e+00 0.0000000e+00 
7.8000000e+01 8.0000000e+00 0.0000000e+00 
7.8000000e+01 0.0000000e+00 4.0000000e+00 
7.4000000e+01 7.0000000e+00 1.4000000e+01 
7.9000000e+01 0.0000000e+00 2.0000000e+00 
7.6000000e+01 0.0000000e+00 1.1000000e+01 
7.9000000e+01 3.0000000e+00 0.0000000e+00 
7.8000000e+01 7.0000000e+00 0.0000000e+00 
7.5000000e+01 2.0000000e+00 1.4000000e+01 
7.4000000e+01 6.0000000e+00 1.4000000e+01 
7.6000000e+01 0.0000000e+00 1.0000000e+01 
7.7000000e+01 0.0000000e+00 6.0000000e+00 
8.0000000e+01 0.0000000e+00 0.0000000e+00 
7.8000000e+01 6.0000000e+00 0.0000000e+00 
7.6000000e+01 0.0000000e+00 9.0000000e+00 
7.4000000e+01 5.0000000e+00 1.4000000e+01 
7.9000000e+01 2.0000000e+00 0.0000000e+00 
7.8000000e+01 5.0000000e+00 0.0000000e+00 
7.8000000e+01 0.0000000e+00 3.0000000e+00 
7.5000000e+01 1.0000000e+00 1.4000000e+01 
7.7000000e+01 0.0000000e+00 5.0000000e+00 
7.9000000e+01 0.0000000e+00 1.0000000e+00 
7.4000000e+01 4.0000000e+00 1.4000000e+01 
7.6000000e+01 0.0000000e+00 8.0000000e+00 
7.8000000e+01 4.0000000e+00 0.0000000e+00 
7.9000000e+01 1.0000000e+00 0.0000000e+00 
7.4000000e+01 3.0000000e+00 1.4000000e+01 
7.7000000e+01 1.0000000e+01 0.0000000e+00 
7.6000000e+01 0.0000000e+00 7.0000000e+00 
7.5000000e+01 0.0000000e+00 1.4000000e+01 
7.5000000e+01 0.0000000e+00 1.3000000e+01 
7.7000000e+01 9.0000000e+00 0.0000000e+00 
7.8000000e+01 0.0000000e+00 2.0000000e+00 
7.3000000e+01 1.0000000e+01 1.4000000e+01 
7.7000000e+01 8.0000000e+00 0.0000000e+00 
7.8000000e+01 3.0000000e+00 0.0000000e+00 
7.7000000e+01 0.0000000e+00 4.0000000e+00 
7.5000000e+01 0.0000000e+00 1.2000000e+01 
7.3000000e+01 9.0000000e+00 1.4000000e+01 
7.3000000e+01 8.0000000e+00 1.4000000e+01 
7.5000000e+01 0.0000000e+00 1.1000000e+01 
7.7000000e+01 7.0000000e+00 0.0000000e+00 
7.9000000e+01 0.0000000e+00 0.0000000e+00 
7.3000000e+01 7.0000000e+00 1.4000000e+01 
7.6000000e+01 0.0000000e+00 6.0000000e+00 
7.4000000e+01 2.0000000e+00 1.4000000e+01 
7.7000000e+01 6.0000000e+00 0.0000000e+00 
7.5000000e+01 0.0000000e+00 1.0000000e+01 
7.8000000e+01 2.0000000e+00 0.0000000e+00 
7.3000000e+01 6.0000000e+00 1.4000000e+01 
7.7000000e+01 5.0000000e+00 0.0000000e+00 
7.5000000e+01 0.0000000e+00 9.0000000e+00 
7.7000000e+01 0.0000000e+00 3.0000000e+00 
7.8000000e+01 0.0000000e+00 1.0000000e+00 
7.3000000e+01 5.0000000e+00 1.4000000e+01 
7.6000000e+01 0.0000000e+00 5.0000000e+00 
7.4000000e+01 1.0000000e+00 1.4000000e+01 
7.7000000e+01 4.0000000e+00 0.0000000e+00 
7.8000000e+01 1.0000000e+00 0.0000000e+00 
7.5000000e+01 0.0000000e+00 8.0000000e+00 
7.3000000e+01 4.0000000e+00 1.4000000e+01 
7.6000000e+01 1.0000000e+01 0.0000000e+00 
7.6000000e+01 9.0000000e+00 0.0000000e+00 
7.7000000e+01 0.0000000e+00 2.0000000e+00 
7.7000000e+01 3.0000000e+00 0.0000000e+00 
7.5000000e+01 0.0000000e+00 7.0000000e+00 
7.4000000e+01 0.0000000e+00 1.4000000e+01 
7.6000000e+01 8.0000000e+00 0.0000000e+00 
7.6000000e+01 0.0000000e+00 4.0000000e+00 
7.4000000e+01 0.0000000e+00 1.3000000e+01 
7.3000000e+01 3.0000000e+00 1.4000000e+01 
7.8000000e+01 0.0000000e+00 0.0000000e+00 
7.4000000e+01 0.0000000e+00 1.2000000e+01 
7.6000000e+01 7.0000000e+00 0.0000000e+00 
7.2000000e+01 1.0000000e+01 1.4000000e+01 
7.2000000e+01 9.0000000e+00 1.4000000e+01 
7.4000000e+01 0.0000000e+00 1.1000000e+01 
7.6000000e+01 6.0000000e+00 0.0000000e+00 
7.2000000e+01 8.0000000e+00 1.4000000e+01 
7.7000000e+01 2.0000000e+00 0.0000000e+00 
7.5000000e+01 0.0000000e+00 6.0000000e+00 
7.4000000e+01 0.0000000e+00 1.0000000e+01 
7.2000000e+01 7.0000000e+00 1.4000000e+01 
7.3000000e+01 2.0000000e+00 1.4000000e+01 
7.6000000e+01 5.0000000e+00 0.0000000e+00 
7.6000000e+01 0.0000000e+00 3.0000000e+00 
7.7000000e+01 0.0000000e+00 1.0000000e+00 
7.2000000e+01 6.0000000e+00 1.4000000e+01 
7.4000000e+01 0.0000000e+00 9.0000000e+00 
7.7000000e+01 1.0000000e+00 0.0000000e+00 
7.5000000e+01 0.0000000e+00 5.0000000e+00 
7.6000000e+01 4.0000000e+00 0.0000000e+00 
7.2000000e+01 5.0000000e+00 1.4000000e+01 
7.3000000e+01 1.0000000e+00 1.4000000e+01 
7.4000000e+01 0.0000000e+00 8.0000000e+00 
7.6000000e+01 0.0000000e+00 2.0000000e+00 
7.2000000e+01 4.0000000e+00 1.4000000e+01 
7.5000000e+01 1.0000000e+01 0.0000000e+00 
7.6000000e+01 3.0000000e+00 0.0000000e+00 
7.5000000e+01 9.0000000e+00 0.0000000e+00 
7.7000000e+01 0.0000000e+00 0.0000000e+00 
7.4000000e+01 0.0000000e+00 7.0000000e+00 
7.5000000e+01 8.0000000e+00 0.0000000e+00 
7.5000000e+01 0.0000000e+00 4.0000000e+00 
7.3000000e+01 0.0000000e+00 1.4000000e+01 
7.5000000e+01 7.0000000e+00 0.0000000e+00 
7.3000000e+01 0.0000000e+00 1.3000000e+01 
7.3000000e+01 0.0000000e+00 1.2000000e+01 
7.2000000e+01 3.0000000e+00 1.4000000e+01 
7.6000000e+01 2.0000000e+00 0.0000000e+00 
7.5000000e+01 6.0000000e+00 0.0000000e+00 
7.3000000e+01 0.0000000e+00 1.1000000e+01 
7.4000000e+01 0.0000000e+00 6.0000000e+00 
7.1000000e+01 1.0000000e+01 1.4000000e+01 
7.1000000e+01 9.0000000e+00 1.4000000e+01 
7.1000000e+01 8.0000000e+00 1.4000000e+01 
7.6000000e+01 0.0000000e+00 1.0000000e+00 
7.3000000e+01 0.0000000e+00 1.0000000e+01 
7.5000000e+01 0.0000000e+00 3.0000000e+00 
7.5000000e+01 5.0000000e+00 0.0000000e+00 
7.2000000e+01 2.0000000e+00 1.4000000e+01 
7.1000000e+01 7.0000000e+00 1.4000000e+01 
7.6000000e+01 1.0000000e+00 0.0000000e+00 
7.3000000e+01 0.0000000e+00 9.0000000e+00 
7.1000000e+01 6.0000000e+00 1.4000000e+01 
7.5000000e+01 4.0000000e+00 0.0000000e+00 
7.4000000e+01 0.0000000e+00 5.0000000e+00 
7.3000000e+01 0.0000000e+00 8.0000000e+00 
7.2000000e+01 1.0000000e+00 1.4000000e+01 
7.1000000e+01 5.0000000e+00 1.4000000e+01 
7.5000000e+01 0.0000000e+00 2.0000000e+00 
7.5000000e+01 3.0000000e+00 0.0000000e+00 
7.6000000e+01 0.0000000e+00 0.0000000e+00 
7.4000000e+01 1.0000000e+01 0.0000000e+00 
7.4000000e+01 9.0000000e+00 0.0000000e+00 
7.4000000e+01 8.0000000e+00 0.0000000e+00 
7.4000000e+01 0.0000000e+00 4.0000000e+00 
7.1000000e+01 4.0000000e+00 1.4000000e+01 
7.3000000e+01 0.0000000e+00 7.0000000e+00 
7.4000000e+01 7.0000000e+00 0.0000000e+00 
7.2000000e+01 0.0000000e+00 1.4000000e+01 
7.2000000e+01 0.0000000e+00 1.3000000e+01 
7.5000000e+01 2.0000000e+00 0.0000000e+00 
7.4000000e+01 6.0000000e+00 0.0000000e+00 
7.2000000e+01 0.0000000e+00 1.2000000e+01 
7.1000000e+01 3.0000000e+00 1.4000000e+01 
7.2000000e+01 0.0000000e+00 1.1000000e+01 
7.3000000e+01 0.0000000e+00 6.0000000e+00 
7.5000000e+01 0.0000000e+00 1.0000000e+00 
7.4000000e+01 0.0000000e+00 3.0000000e+00 
7.4000000e+01 5.0000000e+00 0.0000000e+00 
7.0000000e+01 1.0000000e+01 1.4000000e+01 
7.2000000e+01 0.0000000e+00 1.0000000e+01 
7.0000000e+01 9.0000000e+00 1.4000000e+01 
7.5000000e+01 1.0000000e+00 0.0000000e+00 
7.0000000e+01 8.0000000e+00 1.4000000e+01 
7.1000000e+01 2.0000000e+00 1.4000000e+01 
7.4000000e+01 4.0000000e+00 0.0000000e+00 
7.2000000e+01 0.0000000e+00 9.0000000e+00 
7.0000000e+01 7.0000000e+00 1.4000000e+01 
7.3000000e+01 0.0000000e+00 5.0000000e+00 
7.0000000e+01 6.0000000e+00 1.4000000e+01 
7.4000000e+01 0.0000000e+00 2.0000000e+00 
7.2000000e+01 0.0000000e+00 8.0000000e+00 
7.5000000e+01 0.0000000e+00 0.0000000e+00 
7.4000000e+01 3.0000000e+00 0.0000000e+00 
7.1000000e+01 1.0000000e+00 1.4000000e+01 
7.3000000e+01 1.0000000e+01 0.0000000e+00 
7.0000000e+01 5.0000000e+00 1.4000000e+01 
7.3000000e+01 9.0000000e+00 0.0000000e+00 
7.3000000e+01 8.0000000e+00 0.0000000e+00 
7.3000000e+01 0.0000000e+00 4.0000000e+00 
7.2000000e+01 0.0000000e+00 7.0000000e+00 
7.3000000e+01 7.0000000e+00 0.0000000e+00 
7.0000000e+01 4.0000000e+00 1.4000000e+01 
7.4000000e+01 2.0000000e+00 0.0000000e+00 
7.1000000e+01 0.0000000e+00 1.4000000e+01 
7.3000000e+01 6.0000000e+00 0.0000000e+00 
7.1000000e+01 0.0000000e+00 1.3000000e+01 
7.1000000e+01 0.0000000e+00 1.2000000e+01 
7.4000000e+01 0.0000000e+00 1.0000000e+00 
7.2000000e+01 0.0000000e+00 6.0000000e+00 
7.0000000e+01 3.0000000e+00 1.4000000e+01 
7.1000000e+01 0.0000000e+00 1.1000000e+01 
7.3000000e+01 5.0000000e+00 0.0000000e+00 
7.3000000e+01 0.0000000e+00 3.0000000e+00 
7.4000000e+01 1.0000000e+00 0.0000000e+00 
7.1000000e+01 0.0000000e+00 1.0000000e+01 
6.9000000e+01 1.0000000e+01 1.4000000e+01 
7.3000000e+01 4.0000000e+00 0.0000000e+00 
6.9000000e+01 9.0000000e+00 1.4000000e+01 
7.0000000e+01 2.0000000e+00 1.4000000e+01 
6.9000000e+01 8.0000000e+00 1.4000000e+01 
7.2000000e+01 0.0000000e+00 5.0000000e+00 
7.1000000e+01 0.0000000e+00 9.0000000e+00 
6.9000000e+01 7.0000000e+00 1.4000000e+01 
7.4000000e+01 0.0000000e+00 0.0000000e+00 
7.3000000e+01 0.0000000e+00 2.0000000e+00 
7.3000000e+01 3.0000000e+00 0.0000000e+00 
6.9000000e+01 6.0000000e+00 1.4000000e+01 
7.1000000e+01 0.0000000e+00 8.0000000e+00 
7.2000000e+01 1.0000000e+01 0.0000000e+00 
7.2000000e+01 9.0000000e+00 0.0000000e+00 
7.0000000e+01 1.0000000e+00 1.4000000e+01 
7.2000000e+01 0.0000000e+00 4.0000000e+00 
7.2000000e+01 8.0000000e+00 0.0000000e+00 
6.9000000e+01 5.0000000e+00 1.4000000e+01 
7.2000000e+01 7.0000000e+00 0.0000000e+00 
7.3000000e+01 2.0000000e+00 0.0000000e+00 
7.1000000e+01 0.0000000e+00 7.0000000e+00 
7.2000000e+01 6.0000000e+00 0.0000000e+00 
6.9000000e+01 4.0000000e+00 1.4000000e+01 
7.3000000e+01 0.0000000e+00 1.0000000e+00 
7.0000000e+01 0.0000000e+00 1.4000000e+01 
7.0000000e+01 0.0000000e+00 1.3000000e+01 
7.0000000e+01 0.0000000e+00 1.2000000e+01 
7.1000000e+01 0.0000000e+00 6.0000000e+00 
7.2000000e+01 5.0000000e+00 0.0000000e+00 
7.2000000e+01 0.0000000e+00 3.0000000e+00 
7.3000000e+01 1.0000000e+00 0.0000000e+00 
7.0000000e+01 0.0000000e+00 1.1000000e+01 
6.9000000e+01 3.0000000e+00 1.4000000e+01 
7.2000000e+01 4.0000000e+00 0.0000000e+00 
7.0000000e+01 0.0000000e+00 1.0000000e+01 
7.1000000e+01 0.0000000e+00 5.0000000e+00 
6.8000000e+01 1.0000000e+01 1.4000000e+01 
6.8000000e+01 9.0000000e+00 1.4000000e+01 
7.3000000e+01 0.0000000e+00 0.0000000e+00 
7.0000000e+01 0.0000000e+00 9.0000000e+00 
6.9000000e+01 2.0000000e+00 1.4000000e+01 
7.2000000e+01 0.0000000e+00 2.0000000e+00 
6.8000000e+01 8.0000000e+00 1.4000000e+01 
7.2000000e+01 3.0000000e+00 0.0000000e+00 
6.8000000e+01 7.0000000e+00 1.4000000e+01 
7.0000000e+01 0.0000000e+00 8.0000000e+00 
7.1000000e+01 1.0000000e+01 0.0000000e+00 
7.1000000e+01 9.0000000e+00 0.0000000e+00 
6.8000000e+01 6.0000000e+00 1.4000000e+01 
7.1000000e+01 8.0000000e+00 0.0000000e+00 
7.1000000e+01 0.0000000e+00 4.0000000e+00 
6.9000000e+01 1.0000000e+00 1.4000000e+01 
7.2000000e+01 2.0000000e+00 0.0000000e+00 
7.1000000e+01 7.0000000e+00 0.0000000e+00 
7.0000000e+01 0.0000000e+00 7.0000000e+00 
6.8000000e+01 5.0000000e+00 1.4000000e+01 
7.1000000e+01 6.0000000e+00 0.0000000e+00 
7.2000000e+01 0.0000000e+00 1.0000000e+00 
6.8000000e+01 4.0000000e+00 1.4000000e+01 
6.9000000e+01 0.0000000e+00 1.4000000e+01 
7.2000000e+01 1.0000000e+00 0.0000000e+00 
7.1000000e+01 5.0000000e+00 0.0000000e+00 
7.1000000e+01 0.0000000e+00 3.0000000e+00 
6.9000000e+01 0.0000000e+00 1.3000000e+01 
7.0000000e+01 0.0000000e+00 6.0000000e+00 
6.9000000e+01 0.0000000e+00 1.2000000e+01 
6.9000000e+01 0.0000000e+00 1.1000000e+01 
7.1000000e+01 4.0000000e+00 0.0000000e+00 
6.8000000e+01 3.0000000e+00 1.4000000e+01 
6.9000000e+01 0.0000000e+00 1.0000000e+01 
7.2000000e+01 0.0000000e+00 0.0000000e+00 
7.0000000e+01 0.0000000e+00 5.0000000e+00 
7.1000000e+01 0.0000000e+00 2.0000000e+00 
7.1000000e+01 3.0000000e+00 0.0000000e+00 
6.9000000e+01 0.0000000e+00 9.0000000e+00 
6.8000000e+01 2.0000000e+00 1.4000000e+01 
6.7000000e+01 1.0000000e+01 1.4000000e+01 
6.7000000e+01 9.0000000e+00 1.4000000e+01 
6.7000000e+01 8.0000000e+00 1.4000000e+01 
7.0000000e+01 1.0000000e+01 0.0000000e+00 
7.0000000e+01 9.0000000e+00 0.0000000e+00 
6.9000000e+01 0.0000000e+00 8.0000000e+00 
6.7000000e+01 7.0000000e+00 1.4000000e+01 
7.0000000e+01 8.0000000e+00 0.0000000e+00 
7.0000000e+01 0.0000000e+00 4.0000000e+00 
7.1000000e+01 2.0000000e+00 0.0000000e+00 
7.0000000e+01 7.0000000e+00 0.0000000e+00 
6.8000000e+01 1.0000000e+00 1.4000000e+01 
6.7000000e+01 6.0000000e+00 1.4000000e+01 
6.9000000e+01 0.0000000e+00 7.0000000e+00 
7.1000000e+01 0.0000000e+00 1.0000000e+00 
7.0000000e+01 6.0000000e+00 0.0000000e+00 
6.7000000e+01 5.0000000e+00 1.4000000e+01 
7.1000000e+01 1.0000000e+00 0.0000000e+00 
7.0000000e+01 5.0000000e+00 0.0000000e+00 
7.0000000e+01 0.0000000e+00 3.0000000e+00 
6.8000000e+01 0.0000000e+00 1.4000000e+01 
6.7000000e+01 4.0000000e+00 1.4000000e+01 
6.9000000e+01 0.0000000e+00 6.0000000e+00 
6.8000000e+01 0.0000000e+00 1.3000000e+01 
6.8000000e+01 0.0000000e+00 1.2000000e+01 
7.0000000e+01 4.0000000e+00 0.0000000e+00 
6.8000000e+01 0.0000000e+00 1.1000000e+01 
7.1000000e+01 0.0000000e+00 0.0000000e+00 
6.7000000e+01 3.0000000e+00 1.4000000e+01 
6.8000000e+01 0.0000000e+00 1.0000000e+01 
6.9000000e+01 0.0000000e+00 5.0000000e+00 
7.0000000e+01 0.0000000e+00 2.0000000e+00 
7.0000000e+01 3.0000000e+00 0.0000000e+00 
6.8000000e+01 0.0000000e+00 9.0000000e+00 
6.7000000e+01 2.0000000e+00 1.4000000e+01 
6.6000000e+01 1.0000000e+01 1.4000000e+01 
6.9000000e+01 1.0000000e+01 0.0000000e+00 
6.6000000e+01 9.0000000e+00 1.4000000e+01 
6.9000000e+01 9.0000000e+00 0.0000000e+00 
7.0000000e+01 2.0000000e+00 0.0000000e+00 
6.8000000e+01 0.0000000e+00 8.0000000e+00 
6.6000000e+01 8.0000000e+00 1.4000000e+01 
6.9000000e+01 8.0000000e+00 0.0000000e+00 
6.9000000e+01 0.0000000e+00 4.0000000e+00 
6.6000000e+01 7.0000000e+00 1.4000000e+01 
6.9000000e+01 7.0000000e+00 0.0000000e+00 
7.0000000e+01 0.0000000e+00 1.0000000e+00 
6.7000000e+01 1.0000000e+00 1.4000000e+01 
6.6000000e+01 6.0000000e+00 1.4000000e+01 
6.8000000e+01 0.0000000e+00 7.0000000e+00 
6.9000000e+01 6.0000000e+00 0.0000000e+00 
7.0000000e+01 1.0000000e+00 0.0000000e+00 
6.6000000e+01 5.0000000e+00 1.4000000e+01 
6.9000000e+01 5.0000000e+00 0.0000000e+00 
6.9000000e+01 0.0000000e+00 3.0000000e+00 
6.8000000e+01 0.0000000e+00 6.0000000e+00 
6.7000000e+01 0.0000000e+00 1.4000000e+01 
6.7000000e+01 0.0000000e+00 1.3000000e+01 
6.6000000e+01 4.0000000e+00 1.4000000e+01 
6.7000000e+01 0.0000000e+00 1.2000000e+01 
6.9000000e+01 4.0000000e+00 0.0000000e+00 
7.0000000e+01 0.0000000e+00 0.0000000e+00 
6.7000000e+01 0.0000000e+00 1.1000000e+01 
6.7000000e+01 0.0000000e+00 1.0000000e+01 
6.9000000e+01 0.0000000e+00 2.0000000e+00 
6.8000000e+01 0.0000000e+00 5.0000000e+00 
6.6000000e+01 3.0000000e+00 1.4000000e+01 
6.9000000e+01 3.0000000e+00 0.0000000e+00 
6.7000000e+01 0.0000000e+00 9.0000000e+00 
6.8000000e+01 1.0000000e+01 0.0000000e+00 
6.6000000e+01 2.0000000e+00 1.4000000e+01 
6.9000000e+01 2.0000000e+00 0.0000000e+00 
6.8000000e+01 9.0000000e+00 0.0000000e+00 
6.8000000e+01 8.0000000e+00 0.0000000e+00 
6.8000000e+01 0.0000000e+00 4.0000000e+00 
6.5000000e+01 1.0000000e+01 1.4000000e+01 
6.7000000e+01 0.0000000e+00 8.0000000e+00 
6.5000000e+01 9.0000000e+00 1.4000000e+01 
6.5000000e+01 8.0000000e+00 1.4000000e+01 
6.8000000e+01 7.0000000e+00 0.0000000e+00 
6.9000000e+01 0.0000000e+00 1.0000000e+00 
6.5000000e+01 7.0000000e+00 1.4000000e+01 
6.8000000e+01 6.0000000e+00 0.0000000e+00 
6.6000000e+01 1.0000000e+00 1.4000000e+01 
6.7000000e+01 0.0000000e+00 7.0000000e+00 
6.9000000e+01 1.0000000e+00 0.0000000e+00 
6.5000000e+01 6.0000000e+00 1.4000000e+01 
6.8000000e+01 0.0000000e+00 3.0000000e+00 
6.8000000e+01 5.0000000e+00 0.0000000e+00 
6.5000000e+01 5.0000000e+00 1.4000000e+01 
6.7000000e+01 0.0000000e+00 6.0000000e+00 
6.6000000e+01 0.0000000e+00 1.4000000e+01 
6.8000000e+01 4.0000000e+00 0.0000000e+00 
6.9000000e+01 0.0000000e+00 0.0000000e+00 
6.6000000e+01 0.0000000e+00 1.3000000e+01 
6.6000000e+01 0.0000000e+00 1.2000000e+01 
6.5000000e+01 4.0000000e+00 1.4000000e+01 
6.6000000e+01 0.0000000e+00 1.1000000e+01 
6.8000000e+01 0.0000000e+00 2.0000000e+00 
6.8000000e+01 3.0000000e+00 0.0000000e+00 
6.7000000e+01 0.0000000e+00 5.0000000e+00 
6.6000000e+01 0.0000000e+00 1.0000000e+01 
6.5000000e+01 3.0000000e+00 1.4000000e+01 
6.6000000e+01 0.0000000e+00 9.0000000e+00 
6.8000000e+01 2.0000000e+00 0.0000000e+00 
6.7000000e+01 1.0000000e+01 0.0000000e+00 
6.7000000e+01 9.0000000e+00 0.0000000e+00 
6.7000000e+01 8.0000000e+00 0.0000000e+00 
6.7000000e+01 0.0000000e+00 4.0000000e+00 
6.5000000e+01 2.0000000e+00 1.4000000e+01 
6.6000000e+01 0.0000000e+00 8.0000000e+00 
6.8000000e+01 0.0000000e+00 1.0000000e+00 
6.7000000e+01 7.0000000e+00 0.0000000e+00 
6.4000000e+01 1.0000000e+01 1.4000000e+01 
6.4000000e+01 9.0000000e+00 1.4000000e+01 
6.4000000e+01 8.0000000e+00 1.4000000e+01 
6.7000000e+01 6.0000000e+00 0.0000000e+00 
6.8000000e+01 1.0000000e+00 0.0000000e+00 
6.6000000e+01 0.0000000e+00 7.0000000e+00 
6.4000000e+01 7.0000000e+00 1.4000000e+01 
6.5000000e+01 1.0000000e+00 1.4000000e+01 
6.7000000e+01 0.0000000e+00 3.0000000e+00 
6.7000000e+01 5.0000000e+00 0.0000000e+00 
6.4000000e+01 6.0000000e+00 1.4000000e+01 
6.8000000e+01 0.0000000e+00 0.0000000e+00 
6.6000000e+01 0.0000000e+00 6.0000000e+00 
6.7000000e+01 4.0000000e+00 0.0000000e+00 
6.4000000e+01 5.0000000e+00 1.4000000e+01 
6.5000000e+01 0.0000000e+00 1.4000000e+01 
6.5000000e+01 0.0000000e+00 1.3000000e+01 
6.5000000e+01 0.0000000e+00 1.2000000e+01 
6.4000000e+01 4.0000000e+00 1.4000000e+01 
6.7000000e+01 0.0000000e+00 2.0000000e+00 
6.7000000e+01 3.0000000e+00 0.0000000e+00 
6.5000000e+01 0.0000000e+00 1.1000000e+01 
6.6000000e+01 0.0000000e+00 5.0000000e+00 
6.5000000e+01 0.0000000e+00 1.0000000e+01 
6.4000000e+01 3.0000000e+00 1.4000000e+01 
6.7000000e+01 2.0000000e+00 0.0000000e+00 
6.5000000e+01 0.0000000e+00 9.0000000e+00 
6.6000000e+01 1.0000000e+01 0.0000000e+00 
6.6000000e+01 9.0000000e+00 0.0000000e+00 
6.6000000e+01 8.0000000e+00 0.0000000e+00 
6.6000000e+01 0.0000000e+00 4.0000000e+00 
6.7000000e+01 0.0000000e+00 1.0000000e+00 
6.4000000e+01 2.0000000e+00 1.4000000e+01 
6.6000000e+01 7.0000000e+00 0.0000000e+00 
6.5000000e+01 0.0000000e+00 8.0000000e+00 
6.7000000e+01 1.0000000e+00 0.0000000e+00 
6.6000000e+01 6.0000000e+00 0.0000000e+00 
6.3000000e+01 1.0000000e+01 1.4000000e+01 
6.3000000e+01 9.0000000e+00 1.4000000e+01 
6.3000000e+01 8.0000000e+00 1.4000000e+01 
6.5000000e+01 0.0000000e+00 7.0000000e+00 
6.6000000e+01 0.0000000e+00 3.0000000e+00 
6.4000000e+01 1.0000000e+00 1.4000000e+01 
6.6000000e+01 5.0000000e+00 0.0000000e+00 
6.3000000e+01 7.0000000e+00 1.4000000e+01 
6.3000000e+01 6.0000000e+00 1.4000000e+01 
6.7000000e+01 0.0000000e+00 0.0000000e+00 
6.6000000e+01 4.0000000e+00 0.0000000e+00 
6.5000000e+01 0.0000000e+00 6.0000000e+00 
6.3000000e+01 5.0000000e+00 1.4000000e+01 
6.4000000e+01 0.0000000e+00 1.4000000e+01 
6.4000000e+01 0.0000000e+00 1.3000000e+01 
6.6000000e+01 0.0000000e+00 2.0000000e+00 
6.4000000e+01 0.0000000e+00 1.2000000e+01 
6.6000000e+01 3.0000000e+00 0.0000000e+00 
6.4000000e+01 0.0000000e+00 1.1000000e+01 
6.3000000e+01 4.0000000e+00 1.4000000e+01 
6.5000000e+01 0.0000000e+00 5.0000000e+00 
6.4000000e+01 0.0000000e+00 1.0000000e+01 
6.6000000e+01 2.0000000e+00 0.0000000e+00 
6.3000000e+01 3.0000000e+00 1.4000000e+01 
6.4000000e+01 0.0000000e+00 9.0000000e+00 
6.5000000e+01 1.0000000e+01 0.0000000e+00 
6.5000000e+01 9.0000000e+00 0.0000000e+00 
6.5000000e+01 8.0000000e+00 0.0000000e+00 
6.5000000e+01 0.0000000e+00 4.0000000e+00 
6.6000000e+01 0.0000000e+00 1.0000000e+00 
6.5000000e+01 7.0000000e+00 0.0000000e+00 
6.4000000e+01 0.0000000e+00 8.0000000e+00 
6.6000000e+01 1.0000000e+00 0.0000000e+00 
6.3000000e+01 2.0000000e+00 1.4000000e+01 
6.5000000e+01 6.0000000e+00 0.0000000e+00 
6.2000000e+01 1.0000000e+01 1.4000000e+01 
6.2000000e+01 9.0000000e+00 1.4000000e+01 
6.4000000e+01 0.0000000e+00 7.0000000e+00 
6.5000000e+01 0.0000000e+00 3.0000000e+00 
6.5000000e+01 5.0000000e+00 0.0000000e+00 
6.2000000e+01 8.0000000e+00 1.4000000e+01 
6.3000000e+01 1.0000000e+00 1.4000000e+01 
6.6000000e+01 0.0000000e+00 0.0000000e+00 
6.2000000e+01 7.0000000e+00 1.4000000e+01 
6.5000000e+01 4.0000000e+00 0.0000000e+00 
6.2000000e+01 6.0000000e+00 1.4000000e+01 
6.4000000e+01 0.0000000e+00 6.0000000e+00 
6.3000000e+01 0.0000000e+00 1.4000000e+01 
6.2000000e+01 5.0000000e+00 1.4000000e+01 
6.5000000e+01 0.0000000e+00 2.0000000e+00 
6.5000000e+01 3.0000000e+00 0.0000000e+00 
6.3000000e+01 0.0000000e+00 1.3000000e+01 
6.3000000e+01 0.0000000e+00 1.2000000e+01 
6.4000000e+01 0.0000000e+00 5.0000000e+00 
6.3000000e+01 0.0000000e+00 1.1000000e+01 
6.2000000e+01 4.0000000e+00 1.4000000e+01 
6.3000000e+01 0.0000000e+00 1.0000000e+01 
6.5000000e+01 2.0000000e+00 0.0000000e+00 
6.4000000e+01 1.0000000e+01 0.0000000e+00 
6.4000000e+01 9.0000000e+00 0.0000000e+00 
6.2000000e+01 3.0000000e+00 1.4000000e+01 
6.3000000e+01 0.0000000e+00 9.0000000e+00 
6.5000000e+01 0.0000000e+00 1.0000000e+00 
6.4000000e+01 8.0000000e+00 0.0000000e+00 
6.4000000e+01 0.0000000e+00 4.0000000e+00 
6.4000000e+01 7.0000000e+00 0.0000000e+00 
6.5000000e+01 1.0000000e+00 0.0000000e+00 
6.3000000e+01 0.0000000e+00 8.0000000e+00 
6.4000000e+01 6.0000000e+00 0.0000000e+00 
6.2000000e+01 2.0000000e+00 1.4000000e+01 
6.4000000e+01 5.0000000e+00 0.0000000e+00 
6.4000000e+01 0.0000000e+00 3.0000000e+00 
6.3000000e+01 0.0000000e+00 7.0000000e+00 
6.5000000e+01 0.0000000e+00 0.0000000e+00 
6.1000000e+01 1.0000000e+01 1.4000000e+01 
6.1000000e+01 9.0000000e+00 1.4000000e+01 
6.1000000e+01 8.0000000e+00 1.4000000e+01 
6.2000000e+01 1.0000000e+00 1.4000000e+01 
6.4000000e+01 4.0000000e+00 0.0000000e+00 
6.1000000e+01 7.0000000e+00 1.4000000e+01 
6.3000000e+01 0.0000000e+00 6.0000000e+00 
6.1000000e+01 6.0000000e+00 1.4000000e+01 
6.4000000e+01 0.0000000e+00 2.0000000e+00 
6.4000000e+01 3.0000000e+00 0.0000000e+00 
6.2000000e+01 0.0000000e+00 1.4000000e+01 
6.2000000e+01 0.0000000e+00 1.3000000e+01 
6.1000000e+01 5.0000000e+00 1.4000000e+01 
6.2000000e+01 0.0000000e+00 1.2000000e+01 
6.3000000e+01 0.0000000e+00 5.0000000e+00 
6.2000000e+01 0.0000000e+00 1.1000000e+01 
6.4000000e+01 2.0000000e+00 0.0000000e+00 
6.1000000e+01 4.0000000e+00 1.4000000e+01 
6.2000000e+01 0.0000000e+00 1.0000000e+01 
6.4000000e+01 0.0000000e+00 1.0000000e+00 
6.3000000e+01 1.0000000e+01 0.0000000e+00 
6.3000000e+01 9.0000000e+00 0.0000000e+00 
6.2000000e+01 0.0000000e+00 9.0000000e+00 
6.3000000e+01 8.0000000e+00 0.0000000e+00 
6.3000000e+01 0.0000000e+00 4.0000000e+00 
6.1000000e+01 3.0000000e+00 1.4000000e+01 
6.4000000e+01 1.0000000e+00 0.0000000e+00 
6.3000000e+01 7.0000000e+00 0.0000000e+00 
6.2000000e+01 0.0000000e+00 8.0000000e+00 
6.3000000e+01 6.0000000e+00 0.0000000e+00 
6.1000000e+01 2.0000000e+00 1.4000000e+01 
6.3000000e+01 5.0000000e+00 0.0000000e+00 
6.3000000e+01 0.0000000e+00 3.0000000e+00 
6.4000000e+01 0.0000000e+00 0.0000000e+00 
6.2000000e+01 0.0000000e+00 7.0000000e+00 
6.0000000e+01 1.0000000e+01 1.4000000e+01 
6.3000000e+01 4.0000000e+00 0.0000000e+00 
6.0000000e+01 9.0000000e+00 1.4000000e+01 
6.1000000e+01 1.0000000e+00 1.4000000e+01 
6.0000000e+01 8.0000000e+00 1.4000000e+01 
6.2000000e+01 0.0000000e+00 6.0000000e+00 
6.0000000e+01 7.0000000e+00 1.4000000e+01 
6.3000000e+01 0.0000000e+00 2.0000000e+00 
6.3000000e+01 3.0000000e+00 0.0000000e+00 
6.0000000e+01 6.0000000e+00 1.4000000e+01 
6.1000000e+01 0.0000000e+00 1.4000000e+01 
6.1000000e+01 0.0000000e+00 1.3000000e+01 
6.1000000e+01 0.0000000e+00 1.2000000e+01 
6.0000000e+01 5.0000000e+00 1.4000000e+01 
6.2000000e+01 0.0000000e+00 5.0000000e+00 
6.3000000e+01 2.0000000e+00 0.0000000e+00 
6.1000000e+01 0.0000000e+00 1.1000000e+01 
6.0000000e+01 4.0000000e+00 1.4000000e+01 
6.1000000e+01 0.0000000e+00 1.0000000e+01 
6.3000000e+01 0.0000000e+00 1.0000000e+00 
6.2000000e+01 1.0000000e+01 0.0000000e+00 
6.2000000e+01 9.0000000e+00 0.0000000e+00 
6.2000000e+01 8.0000000e+00 0.0000000e+00 
6.2000000e+01 0.0000000e+00 4.0000000e+00 
6.1000000e+01 0.0000000e+00 9.0000000e+00 
6.3000000e+01 1.0000000e+00 0.0000000e+00 
6.2000000e+01 7.0000000e+00 0.0000000e+00 
6.0000000e+01 3.0000000e+00 1.4000000e+01 
6.2000000e+01 6.0000000e+00 0.0000000e+00 
6.1000000e+01 0.0000000e+00 8.0000000e+00 
6.0000000e+01 2.0000000e+00 1.4000000e+01 
6.2000000e+01 5.0000000e+00 0.0000000e+00 
6.2000000e+01 0.0000000e+00 3.0000000e+00 
6.3000000e+01 0.0000000e+00 0.0000000e+00 
6.1000000e+01 0.0000000e+00 7.0000000e+00 
6.2000000e+01 4.0000000e+00 0.0000000e+00 
5.9000000e+01 1.0000000e+01 1.4000000e+01 
6.0000000e+01 1.0000000e+00 1.4000000e+01 
5.9000000e+01 9.0000000e+00 1.4000000e+01 
6.1000000e+01 0.0000000e+00 6.0000000e+00 
5.9000000e+01 8.0000000e+00 1.4000000e+01 
6.2000000e+01 0.0000000e+00 2.0000000e+00 
6.2000000e+01 3.0000000e+00 0.0000000e+00 
5.9000000e+01 7.0000000e+00 1.4000000e+01 
5.9000000e+01 6.0000000e+00 1.4000000e+01 
6.0000000e+01 0.0000000e+00 1.4000000e+01 
6.0000000e+01 0.0000000e+00 1.3000000e+01 
6.1000000e+01 0.0000000e+00 5.0000000e+00 
6.2000000e+01 2.0000000e+00 0.0000000e+00 
6.0000000e+01 0.0000000e+00 1.2000000e+01 
5.9000000e+01 5.0000000e+00 1.4000000e+01 
6.0000000e+01 0.0000000e+00 1.1000000e+01 
6.2000000e+01 0.0000000e+00 1.0000000e+00 
6.0000000e+01 0.0000000e+00 1.0000000e+01 
5.9000000e+01 4.0000000e+00 1.4000000e+01 
6.1000000e+01 1.0000000e+01 0.0000000e+00 
6.1000000e+01 9.0000000e+00 0.0000000e+00 
6.2000000e+01 1.0000000e+00 0.0000000e+00 
6.1000000e+01 8.0000000e+00 0.0000000e+00 
6.1000000e+01 0.0000000e+00 4.0000000e+00 
6.0000000e+01 0.0000000e+00 9.0000000e+00 
6.1000000e+01 7.0000000e+00 0.0000000e+00 
5.9000000e+01 3.0000000e+00 1.4000000e+01 
6.1000000e+01 6.0000000e+00 0.0000000e+00 
6.0000000e+01 0.0000000e+00 8.0000000e+00 
6.2000000e+01 0.0000000e+00 0.0000000e+00 
6.1000000e+01 5.0000000e+00 0.0000000e+00 
6.1000000e+01 0.0000000e+00 3.0000000e+00 
5.9000000e+01 2.0000000e+00 1.4000000e+01 
6.0000000e+01 0.0000000e+00 7.0000000e+00 
6.1000000e+01 4.0000000e+00 0.0000000e+00 
5.9000000e+01 1.0000000e+00 1.4000000e+01 
5.8000000e+01 1.0000000e+01 1.4000000e+01 
6.0000000e+01 0.0000000e+00 6.0000000e+00 
6.1000000e+01 0.0000000e+00 2.0000000e+00 
5.8000000e+01 9.0000000e+00 1.4000000e+01 
6.1000000e+01 3.0000000e+00 0.0000000e+00 
5.8000000e+01 8.0000000e+00 1.4000000e+01 
5.8000000e+01 7.0000000e+00 1.4000000e+01 
5.8000000e+01 6.0000000e+00 1.4000000e+01 
5.9000000e+01 0.0000000e+00 1.4000000e+01 
6.1000000e+01 2.0000000e+00 0.0000000e+00 
6.0000000e+01 0.0000000e+00 5.0000000e+00 
5.9000000e+01 0.0000000e+00 1.3000000e+01 
5.9000000e+01 0.0000000e+00 1.2000000e+01 
5.8000000e+01 5.0000000e+00 1.4000000e+01 
5.9000000e+01 0.0000000e+00 1.1000000e+01 
6.1000000e+01 0.0000000e+00 1.0000000e+00 
6.0000000e+01 1.0000000e+01 0.0000000e+00 
5.9000000e+01 0.0000000e+00 1.0000000e+01 
6.0000000e+01 9.0000000e+00 0.0000000e+00 
6.1000000e+01 1.0000000e+00 0.0000000e+00 
6.0000000e+01 8.0000000e+00 0.0000000e+00 
5.8000000e+01 4.0000000e+00 1.4000000e+01 
6.0000000e+01 0.0000000e+00 4.0000000e+00 
6.0000000e+01 7.0000000e+00 0.0000000e+00 
5.9000000e+01 0.0000000e+00 9.0000000e+00 
6.0000000e+01 6.0000000e+00 0.0000000e+00 
5.8000000e+01 3.0000000e+00 1.4000000e+01 
6.1000000e+01 0.0000000e+00 0.0000000e+00 
5.9000000e+01 0.0000000e+00 8.0000000e+00 
6.0000000e+01 5.0000000e+00 0.0000000e+00 
6.0000000e+01 0.0000000e+00 3.0000000e+00 
5.8000000e+01 2.0000000e+00 1.4000000e+01 
5.9000000e+01 0.0000000e+00 7.0000000e+00 
6.0000000e+01 4.0000000e+00 0.0000000e+00 
6.0000000e+01 0.0000000e+00 2.0000000e+00 
5.9000000e+01 0.0000000e+00 6.0000000e+00 
6.0000000e+01 3.0000000e+00 0.0000000e+00 
5.8000000e+01 1.0000000e+00 1.4000000e+01 
5.7000000e+01 1.0000000e+01 1.4000000e+01 
5.7000000e+01 9.0000000e+00 1.4000000e+01 
5.7000000e+01 8.0000000e+00 1.4000000e+01 
5.7000000e+01 7.0000000e+00 1.4000000e+01 
6.0000000e+01 2.0000000e+00 0.0000000e+00 
5.9000000e+01 0.0000000e+00 5.0000000e+00 
5.8000000e+01 0.0000000e+00 1.4000000e+01 
5.8000000e+01 0.0000000e+00 1.3000000e+01 
5.7000000e+01 6.0000000e+00 1.4000000e+01 
5.8000000e+01 0.0000000e+00 1.2000000e+01 
6.0000000e+01 0.0000000e+00 1.0000000e+00 
5.8000000e+01 0.0000000e+00 1.1000000e+01 
5.7000000e+01 5.0000000e+00 1.4000000e+01 
5.9000000e+01 1.0000000e+01 0.0000000e+00 
6.0000000e+01 1.0000000e+00 0.0000000e+00 
5.9000000e+01 9.0000000e+00 0.0000000e+00 
5.8000000e+01 0.0000000e+00 1.0000000e+01 
5.9000000e+01 8.0000000e+00 0.0000000e+00 
5.9000000e+01 0.0000000e+00 4.0000000e+00 
5.7000000e+01 4.0000000e+00 1.4000000e+01 
5.9000000e+01 7.0000000e+00 0.0000000e+00 
5.8000000e+01 0.0000000e+00 9.0000000e+00 
5.9000000e+01 6.0000000e+00 0.0000000e+00 
6.0000000e+01 0.0000000e+00 0.0000000e+00 
5.7000000e+01 3.0000000e+00 1.4000000e+01 
5.8000000e+01 0.0000000e+00 8.0000000e+00 
5.9000000e+01 5.0000000e+00 0.0000000e+00 
5.9000000e+01 0.0000000e+00 3.0000000e+00 
5.9000000e+01 4.0000000e+00 0.0000000e+00 
5.8000000e+01 0.0000000e+00 7.0000000e+00 
5.7000000e+01 2.0000000e+00 1.4000000e+01 
5.9000000e+01 0.0000000e+00 2.0000000e+00 
5.9000000e+01 3.0000000e+00 0.0000000e+00 
5.8000000e+01 0.0000000e+00 6.0000000e+00 
5.7000000e+01 1.0000000e+00 1.4000000e+01 
5.6000000e+01 1.0000000e+01 1.4000000e+01 
5.6000000e+01 9.0000000e+00 1.4000000e+01 
5.6000000e+01 8.0000000e+00 1.4000000e+01 
5.9000000e+01 2.0000000e+00 0.0000000e+00 
5.6000000e+01 7.0000000e+00 1.4000000e+01 
5.8000000e+01 0.0000000e+00 5.0000000e+00 
5.7000000e+01 0.0000000e+00 1.4000000e+01 
5.7000000e+01 0.0000000e+00 1.3000000e+01 
5.9000000e+01 0.0000000e+00 1.0000000e+00 
5.6000000e+01 6.0000000e+00 1.4000000e+01 
5.7000000e+01 0.0000000e+00 1.2000000e+01 
5.9000000e+01 1.0000000e+00 0.0000000e+00 
5.7000000e+01 0.0000000e+00 1.1000000e+01 
5.8000000e+01 1.0000000e+01 0.0000000e+00 
5.6000000e+01 5.0000000e+00 1.4000000e+01 
5.8000000e+01 9.0000000e+00 0.0000000e+00 
5.8000000e+01 8.0000000e+00 0.0000000e+00 
5.8000000e+01 0.0000000e+00 4.0000000e+00 
5.7000000e+01 0.0000000e+00 1.0000000e+01 
5.8000000e+01 7.0000000e+00 0.0000000e+00 
5.6000000e+01 4.0000000e+00 1.4000000e+01 
5.7000000e+01 0.0000000e+00 9.0000000e+00 
5.8000000e+01 6.0000000e+00 0.0000000e+00 
5.9000000e+01 0.0000000e+00 0.0000000e+00 
5.7000000e+01 0.0000000e+00 8.0000000e+00 
5.6000000e+01 3.0000000e+00 1.4000000e+01 
5.8000000e+01 5.0000000e+00 0.0000000e+00 
5.8000000e+01 0.0000000e+00 3.0000000e+00 
5.8000000e+01 4.0000000e+00 0.0000000e+00 
5.7000000e+01 0.0000000e+00 7.0000000e+00 
5.6000000e+01 2.0000000e+00 1.4000000e+01 
5.8000000e+01 0.0000000e+00 2.0000000e+00 
5.8000000e+01 3.0000000e+00 0.0000000e+00 
5.7000000e+01 0.0000000e+00 6.0000000e+00 
5.6000000e+01 1.0000000e+00 1.4000000e+01 
5.8000000e+01 2.0000000e+00 0.0000000e+00 
5.5000000e+01 1.0000000e+01 1.4000000e+01 
5.5000000e+01 9.0000000e+00 1.4000000e+01 
5.5000000e+01 8.0000000e+00 1.4000000e+01 
5.7000000e+01 0.0000000e+00 5.0000000e+00 
5.8000000e+01 0.0000000e+00 1.0000000e+00 
5.5000000e+01 7.0000000e+00 1.4000000e+01 
5.6000000e+01 0.0000000e+00 1.4000000e+01 
5.6000000e+01 0.0000000e+00 1.3000000e+01 
5.6000000e+01 0.0000000e+00 1.2000000e+01 
5.5000000e+01 6.0000000e+00 1.4000000e+01 
5.8000000e+01 1.0000000e+00 0.0000000e+00 
5.6000000e+01 0.0000000e+00 1.1000000e+01 
5.7000000e+01 1.0000000e+01 0.0000000e+00 
5.7000000e+01 9.0000000e+00 0.0000000e+00 
5.7000000e+01 8.0000000e+00 0.0000000e+00 
5.7000000e+01 0.0000000e+00 4.0000000e+00 
5.5000000e+01 5.0000000e+00 1.4000000e+01 
5.6000000e+01 0.0000000e+00 1.0000000e+01 
5.7000000e+01 7.0000000e+00 0.0000000e+00 
5.8000000e+01 0.0000000e+00 0.0000000e+00 
5.6000000e+01 0.0000000e+00 9.0000000e+00 
5.5000000e+01 4.0000000e+00 1.4000000e+01 
5.7000000e+01 6.0000000e+00 0.0000000e+00 
5.7000000e+01 5.0000000e+00 0.0000000e+00 
5.7000000e+01 0.0000000e+00 3.0000000e+00 
5.6000000e+01 0.0000000e+00 8.0000000e+00 
5.5000000e+01 3.0000000e+00 1.4000000e+01 
5.7000000e+01 4.0000000e+00 0.0000000e+00 
5.6000000e+01 0.0000000e+00 7.0000000e+00 
5.5000000e+01 2.0000000e+00 1.4000000e+01 
5.7000000e+01 0.0000000e+00 2.0000000e+00 
5.7000000e+01 3.0000000e+00 0.0000000e+00 
5.6000000e+01 0.0000000e+00 6.0000000e+00 
5.5000000e+01 1.0000000e+00 1.4000000e+01 
5.7000000e+01 2.0000000e+00 0.0000000e+00 
5.4000000e+01 1.0000000e+01 1.4000000e+01 
5.4000000e+01 9.0000000e+00 1.4000000e+01 
5.6000000e+01 0.0000000e+00 5.0000000e+00 
5.7000000e+01 0.0000000e+00 1.0000000e+00 
5.4000000e+01 8.0000000e+00 1.4000000e+01 
5.5000000e+01 0.0000000e+00 1.4000000e+01 
5.4000000e+01 7.0000000e+00 1.4000000e+01 
5.7000000e+01 1.0000000e+00 0.0000000e+00 
5.5000000e+01 0.0000000e+00 1.3000000e+01 
5.5000000e+01 0.0000000e+00 1.2000000e+01 
5.6000000e+01 1.0000000e+01 0.0000000e+00 
5.4000000e+01 6.0000000e+00 1.4000000e+01 
5.6000000e+01 9.0000000e+00 0.0000000e+00 
5.5000000e+01 0.0000000e+00 1.1000000e+01 
5.6000000e+01 8.0000000e+00 0.0000000e+00 
5.6000000e+01 0.0000000e+00 4.0000000e+00 
5.6000000e+01 7.0000000e+00 0.0000000e+00 
5.5000000e+01 0.0000000e+00 1.0000000e+01 
5.4000000e+01 5.0000000e+00 1.4000000e+01 
5.7000000e+01 0.0000000e+00 0.0000000e+00 
5.6000000e+01 6.0000000e+00 0.0000000e+00 
5.5000000e+01 0.0000000e+00 9.0000000e+00 
5.4000000e+01 4.0000000e+00 1.4000000e+01 
5.6000000e+01 5.0000000e+00 0.0000000e+00 
5.6000000e+01 0.0000000e+00 3.0000000e+00 
5.5000000e+01 0.0000000e+00 8.0000000e+00 
5.4000000e+01 3.0000000e+00 1.4000000e+01 
5.6000000e+01 4.0000000e+00 0.0000000e+00 
5.5000000e+01 0.0000000e+00 7.0000000e+00 
5.6000000e+01 0.0000000e+00 2.0000000e+00 
5.4000000e+01 2.0000000e+00 1.4000000e+01 
5.6000000e+01 3.0000000e+00 0.0000000e+00 
5.5000000e+01 0.0000000e+00 6.0000000e+00 
5.6000000e+01 2.0000000e+00 0.0000000e+00 
5.4000000e+01 1.0000000e+00 1.4000000e+01 
5.6000000e+01 0.0000000e+00 1.0000000e+00 
5.5000000e+01 0.0000000e+00 5.0000000e+00 
5.3000000e+01 1.0000000e+01 1.4000000e+01 
5.3000000e+01 9.0000000e+00 1.4000000e+01 
5.6000000e+01 1.0000000e+00 0.0000000e+00 
5.3000000e+01 8.0000000e+00 1.4000000e+01 
5.4000000e+01 0.0000000e+00 1.4000000e+01 
5.4000000e+01 0.0000000e+00 1.3000000e+01 
5.3000000e+01 7.0000000e+00 1.4000000e+01 
5.4000000e+01 0.0000000e+00 1.2000000e+01 
5.5000000e+01 1.0000000e+01 0.0000000e+00 
5.5000000e+01 9.0000000e+00 0.0000000e+00 
5.5000000e+01 8.0000000e+00 0.0000000e+00 
5.5000000e+01 0.0000000e+00 4.0000000e+00 
5.4000000e+01 0.0000000e+00 1.1000000e+01 
5.3000000e+01 6.0000000e+00 1.4000000e+01 
5.5000000e+01 7.0000000e+00 0.0000000e+00 
5.6000000e+01 0.0000000e+00 0.0000000e+00 
5.4000000e+01 0.0000000e+00 1.0000000e+01 
5.3000000e+01 5.0000000e+00 1.4000000e+01 
5.5000000e+01 6.0000000e+00 0.0000000e+00 
5.4000000e+01 0.0000000e+00 9.0000000e+00 
5.3000000e+01 4.0000000e+00 1.4000000e+01 
5.5000000e+01 5.0000000e+00 0.0000000e+00 
5.5000000e+01 0.0000000e+00 3.0000000e+00 
5.4000000e+01 0.0000000e+00 8.0000000e+00 
5.5000000e+01 4.0000000e+00 0.0000000e+00 
5.3000000e+01 3.0000000e+00 1.4000000e+01 
5.4000000e+01 0.0000000e+00 7.0000000e+00 
5.5000000e+01 0.0000000e+00 2.0000000e+00 
5.5000000e+01 3.0000000e+00 0.0000000e+00 
5.3000000e+01 2.0000000e+00 1.4000000e+01 
5.4000000e+01 0.0000000e+00 6.0000000e+00 
5.5000000e+01 2.0000000e+00 0.0000000e+00 
5.3000000e+01 1.0000000e+00 1.4000000e+01 
5.5000000e+01 0.0000000e+00 1.0000000e+00 
5.4000000e+01 0.0000000e+00 5.0000000e+00 
5.5000000e+01 1.0000000e+00 0.0000000e+00 
5.2000000e+01 1.0000000e+01 1.4000000e+01 
5.2000000e+01 9.0000000e+00 1.4000000e+01 
5.2000000e+01 8.0000000e+00 1.4000000e+01 
5.3000000e+01 0.0000000e+00 1.4000000e+01 
5.3000000e+01 0.0000000e+00 1.3000000e+01 
5.4000000e+01 1.0000000e+01 0.0000000e+00 
5.4000000e+01 9.0000000e+00 0.0000000e+00 
5.3000000e+01 0.0000000e+00 1.2000000e+01 
5.2000000e+01 7.0000000e+00 1.4000000e+01 
5.4000000e+01 8.0000000e+00 0.0000000e+00 
5.4000000e+01 0.0000000e+00 4.0000000e+00 
5.3000000e+01 0.0000000e+00 1.1000000e+01 
5.2000000e+01 6.0000000e+00 1.4000000e+01 
5.5000000e+01 0.0000000e+00 0.0000000e+00 
5.4000000e+01 7.0000000e+00 0.0000000e+00 
5.3000000e+01 0.0000000e+00 1.0000000e+01 
5.4000000e+01 6.0000000e+00 0.0000000e+00 
5.2000000e+01 5.0000000e+00 1.4000000e+01 
5.3000000e+01 0.0000000e+00 9.0000000e+00 
5.4000000e+01 5.0000000e+00 0.0000000e+00 
5.4000000e+01 0.0000000e+00 3.0000000e+00 
5.2000000e+01 4.0000000e+00 1.4000000e+01 
5.3000000e+01 0.0000000e+00 8.0000000e+00 
5.4000000e+01 4.0000000e+00 0.0000000e+00 
5.2000000e+01 3.0000000e+00 1.4000000e+01 
5.3000000e+01 0.0000000e+00 7.0000000e+00 
5.4000000e+01 0.0000000e+00 2.0000000e+00 
5.4000000e+01 3.0000000e+00 0.0000000e+00 
5.2000000e+01 2.0000000e+00 1.4000000e+01 
5.3000000e+01 0.0000000e+00 6.0000000e+00 
5.4000000e+01 2.0000000e+00 0.0000000e+00 
5.2000000e+01 1.0000000e+00 1.4000000e+01 
5.4000000e+01 0.0000000e+00 1.0000000e+00 
5.3000000e+01 0.0000000e+00 5.0000000e+00 
5.4000000e+01 1.0000000e+00 0.0000000e+00 
5.1000000e+01 1.0000000e+01 1.4000000e+01 
5.1000000e+01 9.0000000e+00 1.4000000e+01 
5.2000000e+01 0.0000000e+00 1.4000000e+01 
5.2000000e+01 0.0000000e+00 1.3000000e+01 
5.3000000e+01 1.0000000e+01 0.0000000e+00 
5.1000000e+01 8.0000000e+00 1.4000000e+01 
5.3000000e+01 9.0000000e+00 0.0000000e+00 
5.2000000e+01 0.0000000e+00 1.2000000e+01 
5.3000000e+01 0.0000000e+00 4.0000000e+00 
5.3000000e+01 8.0000000e+00 0.0000000e+00 
5.1000000e+01 7.0000000e+00 1.4000000e+01 
5.4000000e+01 0.0000000e+00 0.0000000e+00 
5.2000000e+01 0.0000000e+00 1.1000000e+01 
5.3000000e+01 7.0000000e+00 0.0000000e+00 
5.1000000e+01 6.0000000e+00 1.4000000e+01 
5.2000000e+01 0.0000000e+00 1.0000000e+01 
5.3000000e+01 6.0000000e+00 0.0000000e+00 
5.1000000e+01 5.0000000e+00 1.4000000e+01 
5.2000000e+01 0.0000000e+00 9.0000000e+00 
5.3000000e+01 5.0000000e+00 0.0000000e+00 
5.3000000e+01 0.0000000e+00 3.0000000e+00 
5.1000000e+01 4.0000000e+00 1.4000000e+01 
5.2000000e+01 0.0000000e+00 8.0000000e+00 
5.3000000e+01 4.0000000e+00 0.0000000e+00 
5.1000000e+01 3.0000000e+00 1.4000000e+01 
5.2000000e+01 0.0000000e+00 7.0000000e+00 
5.3000000e+01 0.0000000e+00 2.0000000e+00 
5.3000000e+01 3.0000000e+00 0.0000000e+00 
5.1000000e+01 2.0000000e+00 1.4000000e+01 
5.2000000e+01 0.0000000e+00 6.0000000e+00 
5.3000000e+01 2.0000000e+00 0.0000000e+00 
5.3000000e+01 0.0000000e+00 1.0000000e+00 
5.1000000e+01 1.0000000e+00 1.4000000e+01 
5.2000000e+01 0.0000000e+00 5.0000000e+00 
5.3000000e+01 1.0000000e+00 0.0000000e+00 
5.2000000e+01 1.0000000e+01 0.0000000e+00 
5.0000000e+01 1.0000000e+01 1.4000000e+01 
5.1000000e+01 0.0000000e+00 1.4000000e+01 
5.2000000e+01 9.0000000e+00 0.0000000e+00 
5.0000000e+01 9.0000000e+00 1.4000000e+01 
5.1000000e+01 0.0000000e+00 1.3000000e+01 
5.2000000e+01 0.0000000e+00 4.0000000e+00 
5.2000000e+01 8.0000000e+00 0.0000000e+00 
5.0000000e+01 8.0000000e+00 1.4000000e+01 
5.3000000e+01 0.0000000e+00 0.0000000e+00 
5.1000000e+01 0.0000000e+00 1.2000000e+01 
5.2000000e+01 7.0000000e+00 0.0000000e+00 
5.0000000e+01 7.0000000e+00 1.4000000e+01 
5.1000000e+01 0.0000000e+00 1.1000000e+01 
5.2000000e+01 6.0000000e+00 0.0000000e+00 
5.0000000e+01 6.0000000e+00 1.4000000e+01 
5.1000000e+01 0.0000000e+00 1.0000000e+01 
5.2000000e+01 5.0000000e+00 0.0000000e+00 
5.2000000e+01 0.0000000e+00 3.0000000e+00 
5.0000000e+01 5.0000000e+00 1.4000000e+01 
5.1000000e+01 0.0000000e+00 9.0000000e+00 
5.2000000e+01 4.0000000e+00 0.0000000e+00 
5.0000000e+01 4.0000000e+00 1.4000000e+01 
5.1000000e+01 0.0000000e+00 8.0000000e+00 
5.2000000e+01 0.0000000e+00 2.0000000e+00 
5.2000000e+01 3.0000000e+00 0.0000000e+00 
5.0000000e+01 3.0000000e+00 1.4000000e+01 
5.1000000e+01 0.0000000e+00 7.0000000e+00 
5.2000000e+01 2.0000000e+00 0.0000000e+00 
5.0000000e+01 2.0000000e+00 1.4000000e+01 
5.1000000e+01 0.0000000e+00 6.0000000e+00 
5.2000000e+01 0.0000000e+00 1.0000000e+00 
5.2000000e+01 1.0000000e+00 0.0000000e+00 
5.0000000e+01 1.0000000e+00 1.4000000e+01 
5.1000000e+01 0.0000000e+00 5.0000000e+00 
5.1000000e+01 1.0000000e+01 0.0000000e+00 
5.1000000e+01 9.0000000e+00 0.0000000e+00 
5.2000000e+01 0.0000000e+00 0.0000000e+00 
5.0000000e+01 0.0000000e+00 1.4000000e+01 
5.0000000e+01 0.0000000e+00 1.3000000e+01 
4.9000000e+01 1.0000000e+01 1.4000000e+01 
5.1000000e+01 8.0000000e+00 0.0000000e+00 
5.1000000e+01 0.0000000e+00 4.0000000e+00 
4.9000000e+01 9.0000000e+00 1.4000000e+01 
5.0000000e+01 0.0000000e+00 1.2000000e+01 
4.9000000e+01 8.0000000e+00 1.4000000e+01 
5.1000000e+01 7.0000000e+00 0.0000000e+00 
5.0000000e+01 0.0000000e+00 1.1000000e+01 
4.9000000e+01 7.0000000e+00 1.4000000e+01 
5.1000000e+01 6.0000000e+00 0.0000000e+00 
5.0000000e+01 0.0000000e+00 1.0000000e+01 
4.9000000e+01 6.0000000e+00 1.4000000e+01 
5.1000000e+01 5.0000000e+00 0.0000000e+00 
5.1000000e+01 0.0000000e+00 3.0000000e+00 
5.0000000e+01 0.0000000e+00 9.0000000e+00 
4.9000000e+01 5.0000000e+00 1.4000000e+01 
5.1000000e+01 4.0000000e+00 0.0000000e+00 
5.0000000e+01 0.0000000e+00 8.0000000e+00 
4.9000000e+01 4.0000000e+00 1.4000000e+01 
5.1000000e+01 0.0000000e+00 2.0000000e+00 
5.1000000e+01 3.0000000e+00 0.0000000e+00 
5.0000000e+01 0.0000000e+00 7.0000000e+00 
4.9000000e+01 3.0000000e+00 1.4000000e+01 
5.1000000e+01 2.0000000e+00 0.0000000e+00 
5.0000000e+01 0.0000000e+00 6.0000000e+00 
4.9000000e+01 2.0000000e+00 1.4000000e+01 
5.1000000e+01 0.0000000e+00 1.0000000e+00 
5.1000000e+01 1.0000000e+00 0.0000000e+00 
5.0000000e+01 0.0000000e+00 5.0000000e+00 
4.9000000e+01 1.0000000e+00 1.4000000e+01 
5.0000000e+01 1.0000000e+01 0.0000000e+00 
5.1000000e+01 0.0000000e+00 0.0000000e+00 
5.0000000e+01 9.0000000e+00 0.0000000e+00 
5.0000000e+01 0.0000000e+00 4.0000000e+00 
5.0000000e+01 8.0000000e+00 0.0000000e+00 
4.9000000e+01 0.0000000e+00 1.4000000e+01 
4.9000000e+01 0.0000000e+00 1.3000000e+01 
4.8000000e+01 1.0000000e+01 1.4000000e+01 
4.8000000e+01 9.0000000e+00 1.4000000e+01 
4.9000000e+01 0.0000000e+00 1.2000000e+01 
5.0000000e+01 7.0000000e+00 0.0000000e+00 
4.8000000e+01 8.0000000e+00 1.4000000e+01 
4.9000000e+01 0.0000000e+00 1.1000000e+01 
5.0000000e+01 6.0000000e+00 0.0000000e+00 
4.8000000e+01 7.0000000e+00 1.4000000e+01 
4.9000000e+01 0.0000000e+00 1.0000000e+01 
4.8000000e+01 6.0000000e+00 1.4000000e+01 
5.0000000e+01 5.0000000e+00 0.0000000e+00 
5.0000000e+01 0.0000000e+00 3.0000000e+00 
4.9000000e+01 0.0000000e+00 9.0000000e+00 
4.8000000e+01 5.0000000e+00 1.4000000e+01 
5.0000000e+01 4.0000000e+00 0.0000000e+00 
4.9000000e+01 0.0000000e+00 8.0000000e+00 
4.8000000e+01 4.0000000e+00 1.4000000e+01 
5.0000000e+01 0.0000000e+00 2.0000000e+00 
5.0000000e+01 3.0000000e+00 0.0000000e+00 
4.9000000e+01 0.0000000e+00 7.0000000e+00 
4.8000000e+01 3.0000000e+00 1.4000000e+01 
5.0000000e+01 2.0000000e+00 0.0000000e+00 
4.9000000e+01 0.0000000e+00 6.0000000e+00 
4.8000000e+01 2.0000000e+00 1.4000000e+01 
5.0000000e+01 0.0000000e+00 1.0000000e+00 
5.0000000e+01 1.0000000e+00 0.0000000e+00 
4.9000000e+01 0.0000000e+00 5.0000000e+00 
4.8000000e+01 1.0000000e+00 1.4000000e+01 
5.0000000e+01 0.0000000e+00 0.0000000e+00 
4.9000000e+01 1.0000000e+01 0.0000000e+00 
4.9000000e+01 9.0000000e+00 0.0000000e+00 
4.9000000e+01 0.0000000e+00 4.0000000e+00 
4.9000000e+01 8.0000000e+00 0.0000000e+00 
4.8000000e+01 0.0000000e+00 1.4000000e+01 
4.8000000e+01 0.0000000e+00 1.3000000e+01 
4.9000000e+01 7.0000000e+00 0.0000000e+00 
4.8000000e+01 0.0000000e+00 1.2000000e+01 
4.7000000e+01 1.0000000e+01 1.4000000e+01 
4.7000000e+01 9.0000000e+00 1.4000000e+01 
4.8000000e+01 0.0000000e+00 1.1000000e+01 
4.9000000e+01 6.0000000e+00 0.0000000e+00 
4.7000000e+01 8.0000000e+00 1.4000000e+01 
4.7000000e+01 7.0000000e+00 1.4000000e+01 
4.8000000e+01 0.0000000e+00 1.0000000e+01 
4.9000000e+01 5.0000000e+00 0.0000000e+00 
4.9000000e+01 0.0000000e+00 3.0000000e+00 
4.7000000e+01 6.0000000e+00 1.4000000e+01 
4.8000000e+01 0.0000000e+00 9.0000000e+00 
4.9000000e+01 4.0000000e+00 0.0000000e+00 
4.7000000e+01 5.0000000e+00 1.4000000e+01 
4.8000000e+01 0.0000000e+00 8.0000000e+00 
4.9000000e+01 0.0000000e+00 2.0000000e+00 
4.7000000e+01 4.0000000e+00 1.4000000e+01 
4.9000000e+01 3.0000000e+00 0.0000000e+00 
4.8000000e+01 0.0000000e+00 7.0000000e+00 
4.7000000e+01 3.0000000e+00 1.4000000e+01 
4.9000000e+01 2.0000000e+00 0.0000000e+00 
4.8000000e+01 0.0000000e+00 6.0000000e+00 
4.9000000e+01 0.0000000e+00 1.0000000e+00 
4.7000000e+01 2.0000000e+00 1.4000000e+01 
4.9000000e+01 1.0000000e+00 0.0000000e+00 
4.8000000e+01 0.0000000e+00 5.0000000e+00 
4.7000000e+01 1.0000000e+00 1.4000000e+01 
4.9000000e+01 0.0000000e+00 0.0000000e+00 
4.8000000e+01 1.0000000e+01 0.0000000e+00 
4.8000000e+01 9.0000000e+00 0.0000000e+00 
4.8000000e+01 8.0000000e+00 0.0000000e+00 
4.8000000e+01 0.0000000e+00 4.0000000e+00 
4.7000000e+01 0.0000000e+00 1.4000000e+01 
4.8000000e+01 7.0000000e+00 0.0000000e+00 
4.7000000e+01 0.0000000e+00 1.3000000e+01 
4.7000000e+01 0.0000000e+00 1.2000000e+01 
4.6000000e+01 1.0000000e+01 1.4000000e+01 
4.8000000e+01 6.0000000e+00 0.0000000e+00 
4.6000000e+01 9.0000000e+00 1.4000000e+01 
4.7000000e+01 0.0000000e+00 1.1000000e+01 
4.6000000e+01 8.0000000e+00 1.4000000e+01 
4.8000000e+01 5.0000000e+00 0.0000000e+00 
4.8000000e+01 0.0000000e+00 3.0000000e+00 
4.7000000e+01 0.0000000e+00 1.0000000e+01 
4.6000000e+01 7.0000000e+00 1.4000000e+01 
4.6000000e+01 6.0000000e+00 1.4000000e+01 
4.7000000e+01 0.0000000e+00 9.0000000e+00 
4.8000000e+01 4.0000000e+00 0.0000000e+00 
4.6000000e+01 5.0000000e+00 1.4000000e+01 
4.7000000e+01 0.0000000e+00 8.0000000e+00 
4.8000000e+01 0.0000000e+00 2.0000000e+00 
4.8000000e+01 3.0000000e+00 0.0000000e+00 
4.6000000e+01 4.0000000e+00 1.4000000e+01 
4.7000000e+01 0.0000000e+00 7.0000000e+00 
4.8000000e+01 2.0000000e+00 0.0000000e+00 
4.6000000e+01 3.0000000e+00 1.4000000e+01 
4.7000000e+01 0.0000000e+00 6.0000000e+00 
4.8000000e+01 0.0000000e+00 1.0000000e+00 
4.6000000e+01 2.0000000e+00 1.4000000e+01 
4.8000000e+01 1.0000000e+00 0.0000000e+00 
4.7000000e+01 0.0000000e+00 5.0000000e+00 
4.6000000e+01 1.0000000e+00 1.4000000e+01 
4.8000000e+01 0.0000000e+00 0.0000000e+00 
4.7000000e+01 1.0000000e+01 0.0000000e+00 
4.7000000e+01 9.0000000e+00 0.0000000e+00 
4.7000000e+01 8.0000000e+00 0.0000000e+00 
4.7000000e+01 0.0000000e+00 4.0000000e+00 
4.7000000e+01 7.0000000e+00 0.0000000e+00 
4.6000000e+01 0.0000000e+00 1.4000000e+01 
4.6000000e+01 0.0000000e+00 1.3000000e+01 
4.6000000e+01 0.0000000e+00 1.2000000e+01 
4.7000000e+01 6.0000000e+00 0.0000000e+00 
4.5000000e+01 1.0000000e+01 1.4000000e+01 
4.6000000e+01 0.0000000e+00 1.1000000e+01 
4.5000000e+01 9.0000000e+00 1.4000000e+01 
4.5000000e+01 8.0000000e+00 1.4000000e+01 
4.7000000e+01 5.0000000e+00 0.0000000e+00 
4.7000000e+01 0.0000000e+00 3.0000000e+00 
4.6000000e+01 0.0000000e+00 1.0000000e+01 
4.5000000e+01 7.0000000e+00 1.4000000e+01 
4.6000000e+01 0.0000000e+00 9.0000000e+00 
4.7000000e+01 4.0000000e+00 0.0000000e+00 
4.5000000e+01 6.0000000e+00 1.4000000e+01 
4.5000000e+01 5.0000000e+00 1.4000000e+01 
4.6000000e+01 0.0000000e+00 8.0000000e+00 
4.7000000e+01 0.0000000e+00 2.0000000e+00 
4.7000000e+01 3.0000000e+00 0.0000000e+00 
4.5000000e+01 4.0000000e+00 1.4000000e+01 
4.6000000e+01 0.0000000e+00 7.0000000e+00 
4.7000000e+01 2.0000000e+00 0.0000000e+00 
4.5000000e+01 3.0000000e+00 1.4000000e+01 
4.7000000e+01 0.0000000e+00 1.0000000e+00 
4.6000000e+01 0.0000000e+00 6.0000000e+00 
4.7000000e+01 1.0000000e+00 0.0000000e+00 
4.5000000e+01 2.0000000e+00 1.4000000e+01 
4.6000000e+01 0.0000000e+00 5.0000000e+00 
4.7000000e+01 0.0000000e+00 0.0000000e+00 
4.5000000e+01 1.0000000e+00 1.4000000e+01 
4.6000000e+01 1.0000000e+01 0.0000000e+00 
4.6000000e+01 9.0000000e+00 0.0000000e+00 
4.6000000e+01 8.0000000e+00 0.0000000e+00 
4.6000000e+01 0.0000000e+00 4.0000000e+00 
4.6000000e+01 7.0000000e+00 0.0000000e+00 
4.5000000e+01 0.0000000e+00 1.4000000e+01 
4.5000000e+01 0.0000000e+00 1.3000000e+01 
4.6000000e+01 6.0000000e+00 0.0000000e+00 
4.5000000e+01 0.0000000e+00 1.2000000e+01 
4.5000000e+01 0.0000000e+00 1.1000000e+01 
4.4000000e+01 1.0000000e+01 1.4000000e+01 
4.6000000e+01 5.0000000e+00 0.0000000e+00 
4.6000000e+01 0.0000000e+00 3.0000000e+00 
4.4000000e+01 9.0000000e+00 1.4000000e+01 
4.4000000e+01 8.0000000e+00 1.4000000e+01 
4.5000000e+01 0.0000000e+00 1.0000000e+01 
4.4000000e+01 7.0000000e+00 1.4000000e+01 
4.6000000e+01 4.0000000e+00 0.0000000e+00 
4.5000000e+01 0.0000000e+00 9.0000000e+00 
4.4000000e+01 6.0000000e+00 1.4000000e+01 
4.6000000e+01 0.0000000e+00 2.0000000e+00 
4.6000000e+01 3.0000000e+00 0.0000000e+00 
4.4000000e+01 5.0000000e+00 1.4000000e+01 
4.5000000e+01 0.0000000e+00 8.0000000e+00 
4.4000000e+01 4.0000000e+00 1.4000000e+01 
4.5000000e+01 0.0000000e+00 7.0000000e+00 
4.6000000e+01 2.0000000e+00 0.0000000e+00 
4.6000000e+01 0.0000000e+00 1.0000000e+00 
4.4000000e+01 3.0000000e+00 1.4000000e+01 
4.5000000e+01 0.0000000e+00 6.0000000e+00 
4.6000000e+01 1.0000000e+00 0.0000000e+00 
4.4000000e+01 2.0000000e+00 1.4000000e+01 
4.5000000e+01 0.0000000e+00 5.0000000e+00 
4.6000000e+01 0.0000000e+00 0.0000000e+00 
4.4000000e+01 1.0000000e+00 1.4000000e+01 
4.5000000e+01 1.0000000e+01 0.0000000e+00 
4.5000000e+01 9.0000000e+00 0.0000000e+00 
4.5000000e+01 8.0000000e+00 0.0000000e+00 
4.5000000e+01 0.0000000e+00 4.0000000e+00 
4.5000000e+01 7.0000000e+00 0.0000000e+00 
4.4000000e+01 0.0000000e+00 1.4000000e+01 
4.5000000e+01 6.0000000e+00 0.0000000e+00 
4.4000000e+01 0.0000000e+00 1.3000000e+01 
4.4000000e+01 0.0000000e+00 1.2000000e+01 
4.4000000e+01 0.0000000e+00 1.1000000e+01 
4.5000000e+01 5.0000000e+00 0.0000000e+00 
4.5000000e+01 0.0000000e+00 3.0000000e+00 
4.3000000e+01 1.0000000e+01 1.4000000e+01 
4.3000000e+01 9.0000000e+00 1.4000000e+01 
4.4000000e+01 0.0000000e+00 1.0000000e+01 
4.3000000e+01 8.0000000e+00 1.4000000e+01 
4.5000000e+01 4.0000000e+00 0.0000000e+00 
4.3000000e+01 7.0000000e+00 1.4000000e+01 
4.4000000e+01 0.0000000e+00 9.0000000e+00 
4.3000000e+01 6.0000000e+00 1.4000000e+01 
4.5000000e+01 0.0000000e+00 2.0000000e+00 
4.5000000e+01 3.0000000e+00 0.0000000e+00 
4.4000000e+01 0.0000000e+00 8.0000000e+00 
4.3000000e+01 5.0000000e+00 1.4000000e+01 
4.3000000e+01 4.0000000e+00 1.4000000e+01 
4.4000000e+01 0.0000000e+00 7.0000000e+00 
4.5000000e+01 2.0000000e+00 0.0000000e+00 
4.5000000e+01 0.0000000e+00 1.0000000e+00 
4.3000000e+01 3.0000000e+00 1.4000000e+01 
4.4000000e+01 0.0000000e+00 6.0000000e+00 
4.5000000e+01 1.0000000e+00 0.0000000e+00 
4.3000000e+01 2.0000000e+00 1.4000000e+01 
4.4000000e+01 0.0000000e+00 5.0000000e+00 
4.5000000e+01 0.0000000e+00 0.0000000e+00 
4.3000000e+01 1.0000000e+00 1.4000000e+01 
4.4000000e+01 1.0000000e+01 0.0000000e+00 
4.4000000e+01 9.0000000e+00 0.0000000e+00 
4.4000000e+01 8.0000000e+00 0.0000000e+00 
4.4000000e+01 0.0000000e+00 4.0000000e+00 
4.4000000e+01 7.0000000e+00 0.0000000e+00 
4.4000000e+01 6.0000000e+00 0.0000000e+00 
4.3000000e+01 0.0000000e+00 1.4000000e+01 
4.3000000e+01 0.0000000e+00 1.3000000e+01 
4.3000000e+01 0.0000000e+00 1.2000000e+01 
4.4000000e+01 0.0000000e+00 3.0000000e+00 
4.4000000e+01 5.0000000e+00 0.0000000e+00 
4.3000000e+01 0.0000000e+00 1.1000000e+01 
4.2000000e+01 1.0000000e+01 1.4000000e+01 
4.2000000e+01 9.0000000e+00 1.4000000e+01 
4.3000000e+01 0.0000000e+00 1.0000000e+01 
4.2000000e+01 8.0000000e+00 1.4000000e+01 
4.4000000e+01 4.0000000e+00 0.0000000e+00 
4.2000000e+01 7.0000000e+00 1.4000000e+01 
4.3000000e+01 0.0000000e+00 9.0000000e+00 
4.4000000e+01 0.0000000e+00 2.0000000e+00 
4.2000000e+01 6.0000000e+00 1.4000000e+01 
4.4000000e+01 3.0000000e+00 0.0000000e+00 
4.3000000e+01 0.0000000e+00 8.0000000e+00 
4.2000000e+01 5.0000000e+00 1.4000000e+01 
4.4000000e+01 2.0000000e+00 0.0000000e+00 
4.3000000e+01 0.0000000e+00 7.0000000e+00 
4.2000000e+01 4.0000000e+00 1.4000000e+01 
4.4000000e+01 0.0000000e+00 1.0000000e+00 
4.3000000e+01 0.0000000e+00 6.0000000e+00 
4.2000000e+01 3.0000000e+00 1.4000000e+01 
4.4000000e+01 1.0000000e+00 0.0000000e+00 
4.2000000e+01 2.0000000e+00 1.4000000e+01 
4.3000000e+01 0.0000000e+00 5.0000000e+00 
4.4000000e+01 0.0000000e+00 0.0000000e+00 
4.2000000e+01 1.0000000e+00 1.4000000e+01 
4.3000000e+01 1.0000000e+01 0.0000000e+00 
4.3000000e+01 9.0000000e+00 0.0000000e+00 
4.3000000e+01 8.0000000e+00 0.0000000e+00 
4.3000000e+01 0.0000000e+00 4.0000000e+00 
4.3000000e+01 7.0000000e+00 0.0000000e+00 
4.3000000e+01 6.0000000e+00 0.0000000e+00 
4.2000000e+01 0.0000000e+00 1.4000000e+01 
4.2000000e+01 0.0000000e+00 1.3000000e+01 
4.2000000e+01 0.0000000e+00 1.2000000e+01 
4.3000000e+01 5.0000000e+00 0.0000000e+00 
4.3000000e+01 0.0000000e+00 3.0000000e+00 
4.2000000e+01 0.0000000e+00 1.1000000e+01 
4.2000000e+01 0.0000000e+00 1.0000000e+01 
4.3000000e+01 4.0000000e+00 0.0000000e+00 
4.1000000e+01 1.0000000e+01 1.4000000e+01 
4.1000000e+01 9.0000000e+00 1.4000000e+01 
4.1000000e+01 8.0000000e+00 1.4000000e+01 
4.2000000e+01 0.0000000e+00 9.0000000e+00 
4.1000000e+01 7.0000000e+00 1.4000000e+01 
4.3000000e+01 0.0000000e+00 2.0000000e+00 
4.3000000e+01 3.0000000e+00 0.0000000e+00 
4.1000000e+01 6.0000000e+00 1.4000000e+01 
4.2000000e+01 0.0000000e+00 8.0000000e+00 
4.1000000e+01 5.0000000e+00 1.4000000e+01 
4.3000000e+01 2.0000000e+00 0.0000000e+00 
4.2000000e+01 0.0000000e+00 7.0000000e+00 
4.1000000e+01 4.0000000e+00 1.4000000e+01 
4.3000000e+01 0.0000000e+00 1.0000000e+00 
4.3000000e+01 1.0000000e+00 0.0000000e+00 
4.2000000e+01 0.0000000e+00 6.0000000e+00 
4.1000000e+01 3.0000000e+00 1.4000000e+01 
4.2000000e+01 0.0000000e+00 5.0000000e+00 
4.3000000e+01 0.0000000e+00 0.0000000e+00 
4.1000000e+01 2.0000000e+00 1.4000000e+01 
4.2000000e+01 1.0000000e+01 0.0000000e+00 
4.2000000e+01 9.0000000e+00 0.0000000e+00 
4.1000000e+01 1.0000000e+00 1.4000000e+01 
4.2000000e+01 8.0000000e+00 0.0000000e+00 
4.2000000e+01 0.0000000e+00 4.0000000e+00 
4.2000000e+01 7.0000000e+00 0.0000000e+00 
4.2000000e+01 6.0000000e+00 0.0000000e+00 
4.1000000e+01 0.0000000e+00 1.4000000e+01 
4.1000000e+01 0.0000000e+00 1.3000000e+01 
4.2000000e+01 5.0000000e+00 0.0000000e+00 
4.2000000e+01 0.0000000e+00 3.0000000e+00 
4.1000000e+01 0.0000000e+00 1.2000000e+01 
4.1000000e+01 0.0000000e+00 1.1000000e+01 
4.2000000e+01 4.0000000e+00 0.0000000e+00 
4.1000000e+01 0.0000000e+00 1.0000000e+01 
4.0000000e+01 1.0000000e+01 1.4000000e+01 
4.0000000e+01 9.0000000e+00 1.4000000e+01 
4.0000000e+01 8.0000000e+00 1.4000000e+01 
4.1000000e+01 0.0000000e+00 9.0000000e+00 
4.2000000e+01 0.0000000e+00 2.0000000e+00 
4.2000000e+01 3.0000000e+00 0.0000000e+00 
4.0000000e+01 7.0000000e+00 1.4000000e+01 
4.0000000e+01 6.0000000e+00 1.4000000e+01 
4.1000000e+01 0.0000000e+00 8.0000000e+00 
4.2000000e+01 2.0000000e+00 0.0000000e+00 
4.0000000e+01 5.0000000e+00 1.4000000e+01 
4.1000000e+01 0.0000000e+00 7.0000000e+00 
4.2000000e+01 0.0000000e+00 1.0000000e+00 
4.0000000e+01 4.0000000e+00 1.4000000e+01 
4.2000000e+01 1.0000000e+00 0.0000000e+00 
4.1000000e+01 0.0000000e+00 6.0000000e+00 
4.0000000e+01 3.0000000e+00 1.4000000e+01 
4.2000000e+01 0.0000000e+00 0.0000000e+00 
4.1000000e+01 0.0000000e+00 5.0000000e+00 
4.0000000e+01 2.0000000e+00 1.4000000e+01 
4.1000000e+01 1.0000000e+01 0.0000000e+00 
4.1000000e+01 9.0000000e+00 0.0000000e+00 
4.1000000e+01 8.0000000e+00 0.0000000e+00 
4.1000000e+01 0.0000000e+00 4.0000000e+00 
4.0000000e+01 1.0000000e+00 1.4000000e+01 
4.1000000e+01 7.0000000e+00 0.0000000e+00 
4.1000000e+01 6.0000000e+00 0.0000000e+00 
4.0000000e+01 0.0000000e+00 1.4000000e+01 
4.0000000e+01 0.0000000e+00 1.3000000e+01 
4.1000000e+01 5.0000000e+00 0.0000000e+00 
4.1000000e+01 0.0000000e+00 3.0000000e+00 
4.0000000e+01 0.0000000e+00 1.2000000e+01 
4.0000000e+01 0.0000000e+00 1.1000000e+01 
4.1000000e+01 4.0000000e+00 0.0000000e+00 
4.0000000e+01 0.0000000e+00 1.0000000e+01 
3.9000000e+01 1.0000000e+01 1.4000000e+01 
3.9000000e+01 9.0000000e+00 1.4000000e+01 
4.1000000e+01 0.0000000e+00 2.0000000e+00 
4.0000000e+01 0.0000000e+00 9.0000000e+00 
3.9000000e+01 8.0000000e+00 1.4000000e+01 
4.1000000e+01 3.0000000e+00 0.0000000e+00 
3.9000000e+01 7.0000000e+00 1.4000000e+01 
4.0000000e+01 0.0000000e+00 8.0000000e+00 
3.9000000e+01 6.0000000e+00 1.4000000e+01 
4.1000000e+01 2.0000000e+00 0.0000000e+00 
3.9000000e+01 5.0000000e+00 1.4000000e+01 
4.0000000e+01 0.0000000e+00 7.0000000e+00 
4.1000000e+01 0.0000000e+00 1.0000000e+00 
3.9000000e+01 4.0000000e+00 1.4000000e+01 
4.1000000e+01 1.0000000e+00 0.0000000e+00 
4.0000000e+01 0.0000000e+00 6.0000000e+00 
3.9000000e+01 3.0000000e+00 1.4000000e+01 
4.1000000e+01 0.0000000e+00 0.0000000e+00 
4.0000000e+01 0.0000000e+00 5.0000000e+00 
3.9000000e+01 2.0000000e+00 1.4000000e+01 
4.0000000e+01 1.0000000e+01 0.0000000e+00 
4.0000000e+01 9.0000000e+00 0.0000000e+00 
4.0000000e+01 8.0000000e+00 0.0000000e+00 
4.0000000e+01 0.0000000e+00 4.0000000e+00 
3.9000000e+01 1.0000000e+00 1.4000000e+01 
4.0000000e+01 7.0000000e+00 0.0000000e+00 
4.0000000e+01 6.0000000e+00 0.0000000e+00 
3.9000000e+01 0.0000000e+00 1.4000000e+01 
4.0000000e+01 5.0000000e+00 0.0000000e+00 
4.0000000e+01 0.0000000e+00 3.0000000e+00 
3.9000000e+01 0.0000000e+00 1.3000000e+01 
3.9000000e+01 0.0000000e+00 1.2000000e+01 
3.9000000e+01 0.0000000e+00 1.1000000e+01 
4.0000000e+01 4.0000000e+00 0.0000000e+00 
3.9000000e+01 0.0000000e+00 1.0000000e+01 
3.8000000e+01 1.0000000e+01 1.4000000e+01 
4.0000000e+01 0.0000000e+00 2.0000000e+00 
4.0000000e+01 3.0000000e+00 0.0000000e+00 
3.8000000e+01 9.0000000e+00 1.4000000e+01 
3.9000000e+01 0.0000000e+00 9.0000000e+00 
3.8000000e+01 8.0000000e+00 1.4000000e+01 
3.8000000e+01 7.0000000e+00 1.4000000e+01 
3.9000000e+01 0.0000000e+00 8.0000000e+00 
4.0000000e+01 2.0000000e+00 0.0000000e+00 
3.8000000e+01 6.0000000e+00 1.4000000e+01 
3.8000000e+01 5.0000000e+00 1.4000000e+01 
4.0000000e+01 0.0000000e+00 1.0000000e+00 
3.9000000e+01 0.0000000e+00 7.0000000e+00 
4.0000000e+01 1.0000000e+00 0.0000000e+00 
3.8000000e+01 4.0000000e+00 1.4000000e+01 
3.9000000e+01 0.0000000e+00 6.0000000e+00 
3.8000000e+01 3.0000000e+00 1.4000000e+01 
4.0000000e+01 0.0000000e+00 0.0000000e+00 
3.9000000e+01 0.0000000e+00 5.0000000e+00 
3.8000000e+01 2.0000000e+00 1.4000000e+01 
3.9000000e+01 1.0000000e+01 0.0000000e+00 
3.9000000e+01 9.0000000e+00 0.0000000e+00 
3.9000000e+01 8.0000000e+00 0.0000000e+00 
3.9000000e+01 0.0000000e+00 4.0000000e+00 
3.8000000e+01 1.0000000e+00 1.4000000e+01 
3.9000000e+01 7.0000000e+00 0.0000000e+00 
3.9000000e+01 6.0000000e+00 0.0000000e+00 
3.9000000e+01 5.0000000e+00 0.0000000e+00 
3.9000000e+01 0.0000000e+00 3.0000000e+00 
3.8000000e+01 0.0000000e+00 1.4000000e+01 
3.8000000e+01 0.0000000e+00 1.3000000e+01 
3.8000000e+01 0.0000000e+00 1.2000000e+01 
3.9000000e+01 4.0000000e+00 0.0000000e+00 
3.8000000e+01 0.0000000e+00 1.1000000e+01 
3.8000000e+01 0.0000000e+00 1.0000000e+01 
3.9000000e+01 0.0000000e+00 2.0000000e+00 
3.9000000e+01 3.0000000e+00 0.0000000e+00 
3.7000000e+01 1.0000000e+01 1.4000000e+01 
3.8000000e+01 0.0000000e+00 9.0000000e+00 
3.7000000e+01 9.0000000e+00 1.4000000e+01 
3.7000000e+01 8.0000000e+00 1.4000000e+01 
3.7000000e+01 7.0000000e+00 1.4000000e+01 
3.8000000e+01 0.0000000e+00 8.0000000e+00 
3.9000000e+01 2.0000000e+00 0.0000000e+00 
3.7000000e+01 6.0000000e+00 1.4000000e+01 
3.9000000e+01 0.0000000e+00 1.0000000e+00 
3.8000000e+01 0.0000000e+00 7.0000000e+00 
3.7000000e+01 5.0000000e+00 1.4000000e+01 
3.9000000e+01 1.0000000e+00 0.0000000e+00 
3.7000000e+01 4.0000000e+00 1.4000000e+01 
3.8000000e+01 0.0000000e+00 6.0000000e+00 
3.9000000e+01 0.0000000e+00 0.0000000e+00 
3.7000000e+01 3.0000000e+00 1.4000000e+01 
3.8000000e+01 0.0000000e+00 5.0000000e+00 
3.7000000e+01 2.0000000e+00 1.4000000e+01 
3.8000000e+01 1.0000000e+01 0.0000000e+00 
3.8000000e+01 9.0000000e+00 0.0000000e+00 
3.8000000e+01 8.0000000e+00 0.0000000e+00 
3.8000000e+01 0.0000000e+00 4.0000000e+00 
3.8000000e+01 7.0000000e+00 0.0000000e+00 
3.7000000e+01 1.0000000e+00 1.4000000e+01 
3.8000000e+01 6.0000000e+00 0.0000000e+00 
3.8000000e+01 5.0000000e+00 0.0000000e+00 
3.8000000e+01 0.0000000e+00 3.0000000e+00 
3.7000000e+01 0.0000000e+00 1.4000000e+01 
3.7000000e+01 0.0000000e+00 1.3000000e+01 
3.7000000e+01 0.0000000e+00 1.2000000e+01 
3.8000000e+01 4.0000000e+00 0.0000000e+00 
3.7000000e+01 0.0000000e+00 1.1000000e+01 
3.7000000e+01 0.0000000e+00 1.0000000e+01 
3.8000000e+01 0.0000000e+00 2.0000000e+00 
3.8000000e+01 3.0000000e+00 0.0000000e+00 
3.7000000e+01 0.0000000e+00 9.0000000e+00 
3.6000000e+01 1.0000000e+01 1.4000000e+01 
3.6000000e+01 9.0000000e+00 1.4000000e+01 
3.6000000e+01 8.0000000e+00 1.4000000e+01 
3.8000000e+01 2.0000000e+00 0.0000000e+00 
3.7000000e+01 0.0000000e+00 8.0000000e+00 
3.6000000e+01 7.0000000e+00 1.4000000e+01 
3.6000000e+01 6.0000000e+00 1.4000000e+01 
3.8000000e+01 0.0000000e+00 1.0000000e+00 
3.7000000e+01 0.0000000e+00 7.0000000e+00 
3.6000000e+01 5.0000000e+00 1.4000000e+01 
3.8000000e+01 1.0000000e+00 0.0000000e+00 
3.6000000e+01 4.0000000e+00 1.4000000e+01 
3.7000000e+01 0.0000000e+00 6.0000000e+00 
3.8000000e+01 0.0000000e+00 0.0000000e+00 
3.6000000e+01 3.0000000e+00 1.4000000e+01 
3.7000000e+01 0.0000000e+00 5.0000000e+00 
3.6000000e+01 2.0000000e+00 1.4000000e+01 
3.7000000e+01 1.0000000e+01 0.0000000e+00 
3.7000000e+01 9.0000000e+00 0.0000000e+00 
3.7000000e+01 8.0000000e+00 0.0000000e+00 
3.7000000e+01 0.0000000e+00 4.0000000e+00 
3.7000000e+01 7.0000000e+00 0.0000000e+00 
3.6000000e+01 1.0000000e+00 1.4000000e+01 
3.7000000e+01 6.0000000e+00 0.0000000e+00 
3.7000000e+01 5.0000000e+00 0.0000000e+00 
3.7000000e+01 0.0000000e+00 3.0000000e+00 
3.6000000e+01 0.0000000e+00 1.4000000e+01 
3.6000000e+01 0.0000000e+00 1.3000000e+01 
3.6000000e+01 0.0000000e+00 1.2000000e+01 
3.7000000e+01 4.0000000e+00 0.0000000e+00 
3.6000000e+01 0.0000000e+00 1.1000000e+01 
3.6000000e+01 0.0000000e+00 1.0000000e+01 
3.7000000e+01 0.0000000e+00 2.0000000e+00 
3.7000000e+01 3.0000000e+00 0.0000000e+00 
3.6000000e+01 0.0000000e+00 9.0000000e+00 
3.5000000e+01 1.0000000e+01 1.4000000e+01 
3.5000000e+01 9.0000000e+00 1.4000000e+01 
3.7000000e+01 2.0000000e+00 0.0000000e+00 
3.5000000e+01 8.0000000e+00 1.4000000e+01 
3.6000000e+01 0.0000000e+00 8.0000000e+00 
3.5000000e+01 7.0000000e+00 1.4000000e+01 
3.7000000e+01 0.0000000e+00 1.0000000e+00 
3.5000000e+01 6.0000000e+00 1.4000000e+01 
3.6000000e+01 0.0000000e+00 7.0000000e+00 
3.7000000e+01 1.0000000e+00 0.0000000e+00 
3.5000000e+01 5.0000000e+00 1.4000000e+01 
3.6000000e+01 0.0000000e+00 6.0000000e+00 
3.5000000e+01 4.0000000e+00 1.4000000e+01 
3.7000000e+01 0.0000000e+00 0.0000000e+00 
3.5000000e+01 3.0000000e+00 1.4000000e+01 
3.6000000e+01 0.0000000e+00 5.0000000e+00 
3.5000000e+01 2.0000000e+00 1.4000000e+01 
3.6000000e+01 1.0000000e+01 0.0000000e+00 
3.6000000e+01 9.0000000e+00 0.0000000e+00 
3.6000000e+01 8.0000000e+00 0.0000000e+00 
3.6000000e+01 0.0000000e+00 4.0000000e+00 
3.6000000e+01 7.0000000e+00 0.0000000e+00 
3.5000000e+01 1.0000000e+00 1.4000000e+01 
3.6000000e+01 6.0000000e+00 0.0000000e+00 
3.6000000e+01 5.0000000e+00 0.0000000e+00 
3.6000000e+01 0.0000000e+00 3.0000000e+00 
3.5000000e+01 0.0000000e+00 1.4000000e+01 
3.5000000e+01 0.0000000e+00 1.3000000e+01 
3.6000000e+01 4.0000000e+00 0.0000000e+00 
3.5000000e+01 0.0000000e+00 1.2000000e+01 
3.5000000e+01 0.0000000e+00 1.1000000e+01 
3.6000000e+01 0.0000000e+00 2.0000000e+00 
3.6000000e+01 3.0000000e+00 0.0000000e+00 
3.5000000e+01 0.0000000e+00 1.0000000e+01 
3.5000000e+01 0.0000000e+00 9.0000000e+00 
3.4000000e+01 1.0000000e+01 1.4000000e+01 
3.6000000e+01 2.0000000e+00 0.0000000e+00 
3.4000000e+01 9.0000000e+00 1.4000000e+01 
3.4000000e+01 8.0000000e+00 1.4000000e+01 
3.5000000e+01 0.0000000e+00 8.0000000e+00 
3.6000000e+01 0.0000000e+00 1.0000000e+00 
3.4000000e+01 7.0000000e+00 1.4000000e+01 
3.4000000e+01 6.0000000e+00 1.4000000e+01 
3.6000000e+01 1.0000000e+00 0.0000000e+00 
3.5000000e+01 0.0000000e+00 7.0000000e+00 
3.4000000e+01 5.0000000e+00 1.4000000e+01 
3.5000000e+01 0.0000000e+00 6.0000000e+00 
3.6000000e+01 0.0000000e+00 0.0000000e+00 
3.4000000e+01 4.0000000e+00 1.4000000e+01 
3.4000000e+01 3.0000000e+00 1.4000000e+01 
3.5000000e+01 0.0000000e+00 5.0000000e+00 
3.4000000e+01 2.0000000e+00 1.4000000e+01 
3.5000000e+01 1.0000000e+01 0.0000000e+00 
3.5000000e+01 9.0000000e+00 0.0000000e+00 
3.5000000e+01 8.0000000e+00 0.0000000e+00 
3.5000000e+01 0.0000000e+00 4.0000000e+00 
3.5000000e+01 7.0000000e+00 0.0000000e+00 
3.5000000e+01 6.0000000e+00 0.0000000e+00 
3.4000000e+01 1.0000000e+00 1.4000000e+01 
3.5000000e+01 5.0000000e+00 0.0000000e+00 
3.5000000e+01 0.0000000e+00 3.0000000e+00 
3.4000000e+01 0.0000000e+00 1.4000000e+01 
3.5000000e+01 4.0000000e+00 0.0000000e+00 
3.4000000e+01 0.0000000e+00 1.3000000e+01 
3.4000000e+01 0.0000000e+00 1.2000000e+01 
3.4000000e+01 0.0000000e+00 1.1000000e+01 
3.5000000e+01 0.0000000e+00 2.0000000e+00 
3.5000000e+01 3.0000000e+00 0.0000000e+00 
3.4000000e+01 0.0000000e+00 1.0000000e+01 
3.4000000e+01 0.0000000e+00 9.0000000e+00 
3.5000000e+01 2.0000000e+00 0.0000000e+00 
3.3000000e+01 1.0000000e+01 1.4000000e+01 
3.3000000e+01 9.0000000e+00 1.4000000e+01 
3.4000000e+01 0.0000000e+00 8.0000000e+00 
3.3000000e+01 8.0000000e+00 1.4000000e+01 
3.5000000e+01 0.0000000e+00 1.0000000e+00 
3.3000000e+01 7.0000000e+00 1.4000000e+01 
3.5000000e+01 1.0000000e+00 0.0000000e+00 
3.4000000e+01 0.0000000e+00 7.0000000e+00 
3.3000000e+01 6.0000000e+00 1.4000000e+01 
3.3000000e+01 5.0000000e+00 1.4000000e+01 
3.4000000e+01 0.0000000e+00 6.0000000e+00 
3.5000000e+01 0.0000000e+00 0.0000000e+00 
3.3000000e+01 4.0000000e+00 1.4000000e+01 
3.4000000e+01 0.0000000e+00 5.0000000e+00 
3.3000000e+01 3.0000000e+00 1.4000000e+01 
3.4000000e+01 1.0000000e+01 0.0000000e+00 
3.3000000e+01 2.0000000e+00 1.4000000e+01 
3.4000000e+01 9.0000000e+00 0.0000000e+00 
3.4000000e+01 8.0000000e+00 0.0000000e+00 
3.4000000e+01 0.0000000e+00 4.0000000e+00 
3.4000000e+01 7.0000000e+00 0.0000000e+00 
3.4000000e+01 6.0000000e+00 0.0000000e+00 
3.3000000e+01 1.0000000e+00 1.4000000e+01 
3.4000000e+01 5.0000000e+00 0.0000000e+00 
3.4000000e+01 0.0000000e+00 3.0000000e+00 
3.4000000e+01 4.0000000e+00 0.0000000e+00 
3.3000000e+01 0.0000000e+00 1.4000000e+01 
3.3000000e+01 0.0000000e+00 1.3000000e+01 
3.3000000e+01 0.0000000e+00 1.2000000e+01 
3.3000000e+01 0.0000000e+00 1.1000000e+01 
3.4000000e+01 0.0000000e+00 2.0000000e+00 
3.4000000e+01 3.0000000e+00 0.0000000e+00 
3.3000000e+01 0.0000000e+00 1.0000000e+01 
3.3000000e+01 0.0000000e+00 9.0000000e+00 
3.4000000e+01 2.0000000e+00 0.0000000e+00 
3.2000000e+01 1.0000000e+01 1.4000000e+01 
3.4000000e+01 0.0000000e+00 1.0000000e+00 
3.2000000e+01 9.0000000e+00 1.4000000e+01 
3.3000000e+01 0.0000000e+00 8.0000000e+00 
3.2000000e+01 8.0000000e+00 1.4000000e+01 
3.4000000e+01 1.0000000e+00 0.0000000e+00 
3.2000000e+01 7.0000000e+00 1.4000000e+01 
3.3000000e+01 0.0000000e+00 7.0000000e+00 
3.2000000e+01 6.0000000e+00 1.4000000e+01 
3.2000000e+01 5.0000000e+00 1.4000000e+01 
3.4000000e+01 0.0000000e+00 0.0000000e+00 
3.3000000e+01 0.0000000e+00 6.0000000e+00 
3.2000000e+01 4.0000000e+00 1.4000000e+01 
3.3000000e+01 0.0000000e+00 5.0000000e+00 
3.2000000e+01 3.0000000e+00 1.4000000e+01 
3.3000000e+01 1.0000000e+01 0.0000000e+00 
3.3000000e+01 9.0000000e+00 0.0000000e+00 
3.2000000e+01 2.0000000e+00 1.4000000e+01 
3.3000000e+01 0.0000000e+00 4.0000000e+00 
3.3000000e+01 8.0000000e+00 0.0000000e+00 
3.3000000e+01 7.0000000e+00 0.0000000e+00 
3.3000000e+01 6.0000000e+00 0.0000000e+00 
3.2000000e+01 1.0000000e+00 1.4000000e+01 
3.3000000e+01 5.0000000e+00 0.0000000e+00 
3.3000000e+01 0.0000000e+00 3.0000000e+00 
3.3000000e+01 4.0000000e+00 0.0000000e+00 
3.2000000e+01 0.0000000e+00 1.4000000e+01 
3.2000000e+01 0.0000000e+00 1.3000000e+01 
3.2000000e+01 0.0000000e+00 1.2000000e+01 
3.3000000e+01 0.0000000e+00 2.0000000e+00 
3.2000000e+01 0.0000000e+00 1.1000000e+01 
3.3000000e+01 3.0000000e+00 0.0000000e+00 
3.2000000e+01 0.0000000e+00 1.0000000e+01 
3.3000000e+01 2.0000000e+00 0.0000000e+00 
3.2000000e+01 0.0000000e+00 9.0000000e+00 
3.3000000e+01 0.0000000e+00 1.0000000e+00 
3.2000000e+01 0.0000000e+00 8.0000000e+00 
3.1000000e+01 1.0000000e+01 1.4000000e+01 
3.1000000e+01 9.0000000e+00 1.4000000e+01 
3.1000000e+01 8.0000000e+00 1.4000000e+01 
3.3000000e+01 1.0000000e+00 0.0000000e+00 
3.1000000e+01 7.0000000e+00 1.4000000e+01 
3.2000000e+01 0.0000000e+00 7.0000000e+00 
3.1000000e+01 6.0000000e+00 1.4000000e+01 
3.3000000e+01 0.0000000e+00 0.0000000e+00 
3.1000000e+01 5.0000000e+00 1.4000000e+01 
3.2000000e+01 0.0000000e+00 6.0000000e+00 
3.1000000e+01 4.0000000e+00 1.4000000e+01 
3.2000000e+01 0.0000000e+00 5.0000000e+00 
3.1000000e+01 3.0000000e+00 1.4000000e+01 
3.2000000e+01 1.0000000e+01 0.0000000e+00 
3.2000000e+01 9.0000000e+00 0.0000000e+00 
3.2000000e+01 8.0000000e+00 0.0000000e+00 
3.2000000e+01 0.0000000e+00 4.0000000e+00 
3.1000000e+01 2.0000000e+00 1.4000000e+01 
3.2000000e+01 7.0000000e+00 0.0000000e+00 
3.2000000e+01 6.0000000e+00 0.0000000e+00 
3.1000000e+01 1.0000000e+00 1.4000000e+01 
3.2000000e+01 5.0000000e+00 0.0000000e+00 
3.2000000e+01 0.0000000e+00 3.0000000e+00 
3.2000000e+01 4.0000000e+00 0.0000000e+00 
3.1000000e+01 0.0000000e+00 1.4000000e+01 
3.1000000e+01 0.0000000e+00 1.3000000e+01 
3.1000000e+01 0.0000000e+00 1.2000000e+01 
3.2000000e+01 0.0000000e+00 2.0000000e+00 
3.2000000e+01 3.0000000e+00 0.0000000e+00 
3.1000000e+01 0.0000000e+00 1.1000000e+01 
3.1000000e+01 0.0000000e+00 1.0000000e+01 
3.2000000e+01 2.0000000e+00 0.0000000e+00 
3.1000000e+01 0.0000000e+00 9.0000000e+00 
3.2000000e+01 0.0000000e+00 1.0000000e+00 
3.1000000e+01 0.0000000e+00 8.0000000e+00 
3.0000000e+01 1.0000000e+01 1.4000000e+01 
3.2000000e+01 1.0000000e+00 0.0000000e+00 
3.0000000e+01 9.0000000e+00 1.4000000e+01 
3.0000000e+01 8.0000000e+00 1.4000000e+01 
3.0000000e+01 7.0000000e+00 1.4000000e+01 
3.1000000e+01 0.0000000e+00 7.0000000e+00 
3.0000000e+01 6.0000000e+00 1.4000000e+01 
3.2000000e+01 0.0000000e+00 0.0000000e+00 
3.0000000e+01 5.0000000e+00 1.4000000e+01 
3.1000000e+01 0.0000000e+00 6.0000000e+00 
3.0000000e+01 4.0000000e+00 1.4000000e+01 
3.1000000e+01 0.0000000e+00 5.0000000e+00 
3.0000000e+01 3.0000000e+00 1.4000000e+01 
3.1000000e+01 1.0000000e+01 0.0000000e+00 
3.1000000e+01 9.0000000e+00 0.0000000e+00 
3.1000000e+01 8.0000000e+00 0.0000000e+00 
3.1000000e+01 0.0000000e+00 4.0000000e+00 
3.0000000e+01 2.0000000e+00 1.4000000e+01 
3.1000000e+01 7.0000000e+00 0.0000000e+00 
3.1000000e+01 6.0000000e+00 0.0000000e+00 
3.0000000e+01 1.0000000e+00 1.4000000e+01 
3.1000000e+01 5.0000000e+00 0.0000000e+00 
3.1000000e+01 0.0000000e+00 3.0000000e+00 
3.1000000e+01 4.0000000e+00 0.0000000e+00 
3.0000000e+01 0.0000000e+00 1.4000000e+01 
3.0000000e+01 0.0000000e+00 1.3000000e+01 
3.0000000e+01 0.0000000e+00 1.2000000e+01 
3.1000000e+01 0.0000000e+00 2.0000000e+00 
3.1000000e+01 3.0000000e+00 0.0000000e+00 
3.0000000e+01 0.0000000e+00 1.1000000e+01 
3.0000000e+01 0.0000000e+00 1.0000000e+01 
3.1000000e+01 2.0000000e+00 0.0000000e+00 
3.0000000e+01 0.0000000e+00 9.0000000e+00 
3.1000000e+01 0.0000000e+00 1.0000000e+00 
3.0000000e+01 0.0000000e+00 8.0000000e+00 
3.1000000e+01 1.0000000e+00 0.0000000e+00 
2.9000000e+01 1.0000000e+01 1.4000000e+01 
2.9000000e+01 9.0000000e+00 1.4000000e+01 
2.9000000e+01 8.0000000e+00 1.4000000e+01 
3.0000000e+01 0.0000000e+00 7.0000000e+00 
2.9000000e+01 7.0000000e+00 1.4000000e+01 
3.1000000e+01 0.0000000e+00 0.0000000e+00 
2.9000000e+01 6.0000000e+00 1.4000000e+01 
3.0000000e+01 0.0000000e+00 6.0000000e+00 
2.9000000e+01 5.0000000e+00 1.4000000e+01 
2.9000000e+01 4.0000000e+00 1.4000000e+01 
3.0000000e+01 0.0000000e+00 5.0000000e+00 
2.9000000e+01 3.0000000e+00 1.4000000e+01 
3.0000000e+01 1.0000000e+01 0.0000000e+00 
3.0000000e+01 9.0000000e+00 0.0000000e+00 
3.0000000e+01 8.0000000e+00 0.0000000e+00 
3.0000000e+01 0.0000000e+00 4.0000000e+00 
3.0000000e+01 7.0000000e+00 0.0000000e+00 
2.9000000e+01 2.0000000e+00 1.4000000e+01 
3.0000000e+01 6.0000000e+00 0.0000000e+00 
3.0000000e+01 5.0000000e+00 0.0000000e+00 
3.0000000e+01 0.0000000e+00 3.0000000e+00 
2.9000000e+01 1.0000000e+00 1.4000000e+01 
3.0000000e+01 4.0000000e+00 0.0000000e+00 
2.9000000e+01 0.0000000e+00 1.4000000e+01 
2.9000000e+01 0.0000000e+00 1.3000000e+01 
3.0000000e+01 0.0000000e+00 2.0000000e+00 
3.0000000e+01 3.0000000e+00 0.0000000e+00 
2.9000000e+01 0.0000000e+00 1.2000000e+01 
2.9000000e+01 0.0000000e+00 1.1000000e+01 
2.9000000e+01 0.0000000e+00 1.0000000e+01 
3.0000000e+01 2.0000000e+00 0.0000000e+00 
2.9000000e+01 0.0000000e+00 9.0000000e+00 
3.0000000e+01 0.0000000e+00 1.0000000e+00 
3.0000000e+01 1.0000000e+00 0.0000000e+00 
2.9000000e+01 0.0000000e+00 8.0000000e+00 
2.8000000e+01 1.0000000e+01 1.4000000e+01 
2.8000000e+01 9.0000000e+00 1.4000000e+01 
2.8000000e+01 8.0000000e+00 1.4000000e+01 
2.9000000e+01 0.0000000e+00 7.0000000e+00 
2.8000000e+01 7.0000000e+00 1.4000000e+01 
3.0000000e+01 0.0000000e+00 0.0000000e+00 
2.8000000e+01 6.0000000e+00 1.4000000e+01 
2.9000000e+01 0.0000000e+00 6.0000000e+00 
2.8000000e+01 5.0000000e+00 1.4000000e+01 
2.8000000e+01 4.0000000e+00 1.4000000e+01 
2.9000000e+01 0.0000000e+00 5.0000000e+00 
2.8000000e+01 3.0000000e+00 1.4000000e+01 
2.9000000e+01 1.0000000e+01 0.0000000e+00 
2.9000000e+01 9.0000000e+00 0.0000000e+00 
2.9000000e+01 8.0000000e+00 0.0000000e+00 
2.9000000e+01 0.0000000e+00 4.0000000e+00 
2.9000000e+01 7.0000000e+00 0.0000000e+00 
2.8000000e+01 2.0000000e+00 1.4000000e+01 
2.9000000e+01 6.0000000e+00 0.0000000e+00 
2.9000000e+01 5.0000000e+00 0.0000000e+00 
2.9000000e+01 0.0000000e+00 3.0000000e+00 
2.8000000e+01 1.0000000e+00 1.4000000e+01 
2.9000000e+01 4.0000000e+00 0.0000000e+00 
2.8000000e+01 0.0000000e+00 1.4000000e+01 
2.9000000e+01 0.0000000e+00 2.0000000e+00 
2.8000000e+01 0.0000000e+00 1.3000000e+01 
2.9000000e+01 3.0000000e+00 0.0000000e+00 
2.8000000e+01 0.0000000e+00 1.2000000e+01 
2.8000000e+01 0.0000000e+00 1.1000000e+01 
2.8000000e+01 0.0000000e+00 1.0000000e+01 
2.9000000e+01 2.0000000e+00 0.0000000e+00 
2.8000000e+01 0.0000000e+00 9.0000000e+00 
2.9000000e+01 0.0000000e+00 1.0000000e+00 
2.9000000e+01 1.0000000e+00 0.0000000e+00 
2.8000000e+01 0.0000000e+00 8.0000000e+00 
2.7000000e+01 1.0000000e+01 1.4000000e+01 
2.7000000e+01 9.0000000e+00 1.4000000e+01 
2.8000000e+01 0.0000000e+00 7.0000000e+00 
2.7000000e+01 8.0000000e+00 1.4000000e+01 
2.9000000e+01 0.0000000e+00 0.0000000e+00 
2.7000000e+01 7.0000000e+00 1.4000000e+01 
2.7000000e+01 6.0000000e+00 1.4000000e+01 
2.8000000e+01 0.0000000e+00 6.0000000e+00 
2.7000000e+01 5.0000000e+00 1.4000000e+01 
2.8000000e+01 0.0000000e+00 5.0000000e+00 
2.7000000e+01 4.0000000e+00 1.4000000e+01 
2.7000000e+01 3.0000000e+00 1.4000000e+01 
2.8000000e+01 1.0000000e+01 0.0000000e+00 
2.8000000e+01 9.0000000e+00 0.0000000e+00 
2.8000000e+01 8.0000000e+00 0.0000000e+00 
2.8000000e+01 0.0000000e+00 4.0000000e+00 
2.8000000e+01 7.0000000e+00 0.0000000e+00 
2.7000000e+01 2.0000000e+00 1.4000000e+01 
2.8000000e+01 6.0000000e+00 0.0000000e+00 
2.8000000e+01 5.0000000e+00 0.0000000e+00 
2.8000000e+01 0.0000000e+00 3.0000000e+00 
2.7000000e+01 1.0000000e+00 1.4000000e+01 
2.8000000e+01 4.0000000e+00 0.0000000e+00 
2.8000000e+01 0.0000000e+00 2.0000000e+00 
2.7000000e+01 0.0000000e+00 1.4000000e+01 
2.8000000e+01 3.0000000e+00 0.0000000e+00 
2.7000000e+01 0.0000000e+00 1.3000000e+01 
2.7000000e+01 0.0000000e+00 1.2000000e+01 
2.7000000e+01 0.0000000e+00 1.1000000e+01 
2.8000000e+01 2.0000000e+00 0.0000000e+00 
2.7000000e+01 0.0000000e+00 1.0000000e+01 
2.8000000e+01 0.0000000e+00 1.0000000e+00 
2.7000000e+01 0.0000000e+00 9.0000000e+00 
2.8000000e+01 1.0000000e+00 0.0000000e+00 
2.7000000e+01 0.0000000e+00 8.0000000e+00 
2.6000000e+01 1.0000000e+01 1.4000000e+01 
2.6000000e+01 9.0000000e+00 1.4000000e+01 
2.7000000e+01 0.0000000e+00 7.0000000e+00 
2.8000000e+01 0.0000000e+00 0.0000000e+00 
2.6000000e+01 8.0000000e+00 1.4000000e+01 
2.6000000e+01 7.0000000e+00 1.4000000e+01 
2.6000000e+01 6.0000000e+00 1.4000000e+01 
2.7000000e+01 0.0000000e+00 6.0000000e+00 
2.6000000e+01 5.0000000e+00 1.4000000e+01 
2.7000000e+01 0.0000000e+00 5.0000000e+00 
2.6000000e+01 4.0000000e+00 1.4000000e+01 
2.7000000e+01 1.0000000e+01 0.0000000e+00 
2.6000000e+01 3.0000000e+00 1.4000000e+01 
2.7000000e+01 9.0000000e+00 0.0000000e+00 
2.7000000e+01 8.0000000e+00 0.0000000e+00 
2.7000000e+01 0.0000000e+00 4.0000000e+00 
2.7000000e+01 7.0000000e+00 0.0000000e+00 
2.6000000e+01 2.0000000e+00 1.4000000e+01 
2.7000000e+01 6.0000000e+00 0.0000000e+00 
2.7000000e+01 5.0000000e+00 0.0000000e+00 
2.7000000e+01 0.0000000e+00 3.0000000e+00 
2.6000000e+01 1.0000000e+00 1.4000000e+01 
2.7000000e+01 4.0000000e+00 0.0000000e+00 
2.7000000e+01 0.0000000e+00 2.0000000e+00 
2.7000000e+01 3.0000000e+00 0.0000000e+00 
2.6000000e+01 0.0000000e+00 1.4000000e+01 
2.6000000e+01 0.0000000e+00 1.3000000e+01 
2.6000000e+01 0.0000000e+00 1.2000000e+01 
2.6000000e+01 0.0000000e+00 1.1000000e+01 
2.7000000e+01 2.0000000e+00 0.0000000e+00 
2.6000000e+01 0.0000000e+00 1.0000000e+01 
2.7000000e+01 0.0000000e+00 1.0000000e+00 
2.6000000e+01 0.0000000e+00 9.0000000e+00 
2.7000000e+01 1.0000000e+00 0.0000000e+00 
2.6000000e+01 0.0000000e+00 8.0000000e+00 
2.7000000e+01 0.0000000e+00 0.0000000e+00 
2.6000000e+01 0.0000000e+00 7.0000000e+00 
2.5000000e+01 1.0000000e+01 1.4000000e+01 
2.5000000e+01 9.0000000e+00 1.4000000e+01 
2.5000000e+01 8.0000000e+00 1.4000000e+01 
2.5000000e+01 7.0000000e+00 1.4000000e+01 
2.6000000e+01 0.0000000e+00 6.0000000e+00 
2.5000000e+01 6.0000000e+00 1.4000000e+01 
2.5000000e+01 5.0000000e+00 1.4000000e+01 
2.6000000e+01 0.0000000e+00 5.0000000e+00 
2.5000000e+01 4.0000000e+00 1.4000000e+01 
2.6000000e+01 1.0000000e+01 0.0000000e+00 
2.6000000e+01 9.0000000e+00 0.0000000e+00 
2.5000000e+01 3.0000000e+00 1.4000000e+01 
2.6000000e+01 8.0000000e+00 0.0000000e+00 
2.6000000e+01 0.0000000e+00 4.0000000e+00 
2.6000000e+01 7.0000000e+00 0.0000000e+00 
2.6000000e+01 6.0000000e+00 0.0000000e+00 
2.5000000e+01 2.0000000e+00 1.4000000e+01 
2.6000000e+01 5.0000000e+00 0.0000000e+00 
2.6000000e+01 0.0000000e+00 3.0000000e+00 
2.5000000e+01 1.0000000e+00 1.4000000e+01 
2.6000000e+01 4.0000000e+00 0.0000000e+00 
2.6000000e+01 0.0000000e+00 2.0000000e+00 
2.6000000e+01 3.0000000e+00 0.0000000e+00 
2.5000000e+01 0.0000000e+00 1.4000000e+01 
2.5000000e+01 0.0000000e+00 1.3000000e+01 
2.5000000e+01 0.0000000e+00 1.2000000e+01 
2.5000000e+01 0.0000000e+00 1.1000000e+01 
2.6000000e+01 2.0000000e+00 0.0000000e+00 
2.5000000e+01 0.0000000e+00 1.0000000e+01 
2.6000000e+01 0.0000000e+00 1.0000000e+00 
2.5000000e+01 0.0000000e+00 9.0000000e+00 
2.6000000e+01 1.0000000e+00 0.0000000e+00 
2.5000000e+01 0.0000000e+00 8.0000000e+00 
2.6000000e+01 0.0000000e+00 0.0000000e+00 
2.5000000e+01 0.0000000e+00 7.0000000e+00 
2.4000000e+01 1.0000000e+01 1.4000000e+01 
2.4000000e+01 9.0000000e+00 1.4000000e+01 
2.4000000e+01 8.0000000e+00 1.4000000e+01 
2.4000000e+01 7.0000000e+00 1.4000000e+01 
2.5000000e+01 0.0000000e+00 6.0000000e+00 
2.4000000e+01 6.0000000e+00 1.4000000e+01 
2.4000000e+01 5.0000000e+00 1.4000000e+01 
2.5000000e+01 0.0000000e+00 5.0000000e+00 
2.4000000e+01 4.0000000e+00 1.4000000e+01 
2.5000000e+01 1.0000000e+01 0.0000000e+00 
2.5000000e+01 9.0000000e+00 0.0000000e+00 
2.5000000e+01 8.0000000e+00 0.0000000e+00 
2.5000000e+01 0.0000000e+00 4.0000000e+00 
2.4000000e+01 3.0000000e+00 1.4000000e+01 
2.5000000e+01 7.0000000e+00 0.0000000e+00 
2.5000000e+01 6.0000000e+00 0.0000000e+00 
2.4000000e+01 2.0000000e+00 1.4000000e+01 
2.5000000e+01 5.0000000e+00 0.0000000e+00 
2.5000000e+01 0.0000000e+00 3.0000000e+00 
2.5000000e+01 4.0000000e+00 0.0000000e+00 
2.4000000e+01 1.0000000e+00 1.4000000e+01 
2.5000000e+01 0.0000000e+00 2.0000000e+00 
2.5000000e+01 3.0000000e+00 0.0000000e+00 
2.4000000e+01 0.0000000e+00 1.4000000e+01 
2.4000000e+01 0.0000000e+00 1.3000000e+01 
2.4000000e+01 0.0000000e+00 1.2000000e+01 
2.5000000e+01 2.0000000e+00 0.0000000e+00 
2.4000000e+01 0.0000000e+00 1.1000000e+01 
2.4000000e+01 0.0000000e+00 1.0000000e+01 
2.5000000e+01 0.0000000e+00 1.0000000e+00 
2.4000000e+01 0.0000000e+00 9.0000000e+00 
2.5000000e+01 1.0000000e+00 0.0000000e+00 
2.4000000e+01 0.0000000e+00 8.0000000e+00 
2.5000000e+01 0.0000000e+00 0.0000000e+00 
2.4000000e+01 0.0000000e+00 7.0000000e+00 
2.3000000e+01 1.0000000e+01 1.4000000e+01 
2.3000000e+01 9.0000000e+00 1.4000000e+01 
2.3000000e+01 8.0000000e+00 1.4000000e+01 
2.3000000e+01 7.0000000e+00 1.4000000e+01 
2.4000000e+01 0.0000000e+00 6.0000000e+00 
2.3000000e+01 6.0000000e+00 1.4000000e+01 
2.3000000e+01 5.0000000e+00 1.4000000e+01 
2.4000000e+01 0.0000000e+00 5.0000000e+00 
2.3000000e+01 4.0000000e+00 1.4000000e+01 
2.4000000e+01 1.0000000e+01 0.0000000e+00 
2.4000000e+01 9.0000000e+00 0.0000000e+00 
2.4000000e+01 8.0000000e+00 0.0000000e+00 
2.4000000e+01 0.0000000e+00 4.0000000e+00 
2.3000000e+01 3.0000000e+00 1.4000000e+01 
2.4000000e+01 7.0000000e+00 0.0000000e+00 
2.4000000e+01 6.0000000e+00 0.0000000e+00 
2.3000000e+01 2.0000000e+00 1.4000000e+01 
2.4000000e+01 5.0000000e+00 0.0000000e+00 
2.4000000e+01 0.0000000e+00 3.0000000e+00 
2.4000000e+01 4.0000000e+00 0.0000000e+00 
2.3000000e+01 1.0000000e+00 1.4000000e+01 
2.4000000e+01 0.0000000e+00 2.0000000e+00 
2.4000000e+01 3.0000000e+00 0.0000000e+00 
2.3000000e+01 0.0000000e+00 1.4000000e+01 
2.3000000e+01 0.0000000e+00 1.3000000e+01 
2.3000000e+01 0.0000000e+00 1.2000000e+01 
2.4000000e+01 2.0000000e+00 0.0000000e+00 
2.3000000e+01 0.0000000e+00 1.1000000e+01 
2.4000000e+01 0.0000000e+00 1.0000000e+00 
2.3000000e+01 0.0000000e+00 1.0000000e+01 
2.4000000e+01 1.0000000e+00 0.0000000e+00 
2.3000000e+01 0.0000000e+00 9.0000000e+00 
2.3000000e+01 0.0000000e+00 8.0000000e+00 
2.4000000e+01 0.0000000e+00 0.0000000e+00 
2.3000000e+01 0.0000000e+00 7.0000000e+00 
2.2000000e+01 1.0000000e+01 1.4000000e+01 
2.2000000e+01 9.0000000e+00 1.4000000e+01 
2.2000000e+01 8.0000000e+00 1.4000000e+01 
2.3000000e+01 0.0000000e+00 6.0000000e+00 
2.2000000e+01 7.0000000e+00 1.4000000e+01 
2.2000000e+01 6.0000000e+00 1.4000000e+01 
2.2000000e+01 5.0000000e+00 1.4000000e+01 
2.3000000e+01 0.0000000e+00 5.0000000e+00 
2.2000000e+01 4.0000000e+00 1.4000000e+01 
2.3000000e+01 1.0000000e+01 0.0000000e+00 
2.3000000e+01 9.0000000e+00 0.0000000e+00 
2.3000000e+01 8.0000000e+00 0.0000000e+00 
2.3000000e+01 0.0000000e+00 4.0000000e+00 
2.2000000e+01 3.0000000e+00 1.4000000e+01 
2.3000000e+01 7.0000000e+00 0.0000000e+00 
2.3000000e+01 6.0000000e+00 0.0000000e+00 
2.2000000e+01 2.0000000e+00 1.4000000e+01 
2.3000000e+01 5.0000000e+00 0.0000000e+00 
2.3000000e+01 0.0000000e+00 3.0000000e+00 
2.3000000e+01 4.0000000e+00 0.0000000e+00 
2.2000000e+01 1.0000000e+00 1.4000000e+01 
2.3000000e+01 0.0000000e+00 2.0000000e+00 
2.3000000e+01 3.0000000e+00 0.0000000e+00 
2.2000000e+01 0.0000000e+00 1.4000000e+01 
2.2000000e+01 0.0000000e+00 1.3000000e+01 
2.2000000e+01 0.0000000e+00 1.2000000e+01 
2.3000000e+01 2.0000000e+00 0.0000000e+00 
2.2000000e+01 0.0000000e+00 1.1000000e+01 
2.3000000e+01 0.0000000e+00 1.0000000e+00 
2.2000000e+01 0.0000000e+00 1.0000000e+01 
2.3000000e+01 1.0000000e+00 0.0000000e+00 
2.2000000e+01 0.0000000e+00 9.0000000e+00 
2.2000000e+01 0.0000000e+00 8.0000000e+00 
2.3000000e+01 0.0000000e+00 0.0000000e+00 
2.2000000e+01 0.0000000e+00 7.0000000e+00 
2.1000000e+01 1.0000000e+01 1.4000000e+01 
2.1000000e+01 9.0000000e+00 1.4000000e+01 
2.1000000e+01 8.0000000e+00 1.4000000e+01 
2.2000000e+01 0.0000000e+00 6.0000000e+00 
2.1000000e+01 7.0000000e+00 1.4000000e+01 
2.1000000e+01 6.0000000e+00 1.4000000e+01 
2.2000000e+01 0.0000000e+00 5.0000000e+00 
2.1000000e+01 5.0000000e+00 1.4000000e+01 
2.1000000e+01 4.0000000e+00 1.4000000e+01 
2.2000000e+01 1.0000000e+01 0.0000000e+00 
2.2000000e+01 9.0000000e+00 0.0000000e+00 
2.2000000e+01 8.0000000e+00 0.0000000e+00 
2.2000000e+01 0.0000000e+00 4.0000000e+00 
2.2000000e+01 7.0000000e+00 0.0000000e+00 
2.1000000e+01 3.0000000e+00 1.4000000e+01 
2.2000000e+01 6.0000000e+00 0.0000000e+00 
2.2000000e+01 5.0000000e+00 0.0000000e+00 
2.2000000e+01 0.0000000e+00 3.0000000e+00 
2.1000000e+01 2.0000000e+00 1.4000000e+01 
2.2000000e+01 4.0000000e+00 0.0000000e+00 
2.1000000e+01 1.0000000e+00 1.4000000e+01 
2.2000000e+01 0.0000000e+00 2.0000000e+00 
2.2000000e+01 3.0000000e+00 0.0000000e+00 
2.1000000e+01 0.0000000e+00 1.4000000e+01 
2.1000000e+01 0.0000000e+00 1.3000000e+01 
2.2000000e+01 2.0000000e+00 0.0000000e+00 
2.1000000e+01 0.0000000e+00 1.2000000e+01 
2.1000000e+01 0.0000000e+00 1.1000000e+01 
2.2000000e+01 0.0000000e+00 1.0000000e+00 
2.1000000e+01 0.0000000e+00 1.0000000e+01 
2.2000000e+01 1.0000000e+00 0.0000000e+00 
2.1000000e+01 0.0000000e+00 9.0000000e+00 
2.1000000e+01 0.0000000e+00 8.0000000e+00 
2.2000000e+01 0.0000000e+00 0.0000000e+00 
2.1000000e+01 0.0000000e+00 7.0000000e+00 
2.0000000e+01 1.0000000e+01 1.4000000e+01 
2.0000000e+01 9.0000000e+00 1.4000000e+01 
2.0000000e+01 8.0000000e+00 1.4000000e+01 
2.1000000e+01 0.0000000e+00 6.0000000e+00 
2.0000000e+01 7.0000000e+00 1.4000000e+01 
2.0000000e+01 6.0000000e+00 1.4000000e+01 
2.1000000e+01 0.0000000e+00 5.0000000e+00 
2.0000000e+01 5.0000000e+00 1.4000000e+01 
2.0000000e+01 4.0000000e+00 1.4000000e+01 
2.1000000e+01 1.0000000e+01 0.0000000e+00 
2.1000000e+01 9.0000000e+00 0.0000000e+00 
2.1000000e+01 8.0000000e+00 0.0000000e+00 
2.1000000e+01 0.0000000e+00 4.0000000e+00 
2.1000000e+01 7.0000000e+00 0.0000000e+00 
2.0000000e+01 3.0000000e+00 1.4000000e+01 
2.1000000e+01 6.0000000e+00 0.0000000e+00 
2.1000000e+01 5.0000000e+00 0.0000000e+00 
2.1000000e+01 0.0000000e+00 3.0000000e+00 
2.0000000e+01 2.0000000e+00 1.4000000e+01 
2.1000000e+01 4.0000000e+00 0.0000000e+00 
2.0000000e+01 1.0000000e+00 1.4000000e+01 
2.1000000e+01 0.0000000e+00 2.0000000e+00 
2.1000000e+01 3.0000000e+00 0.0000000e+00 
2.0000000e+01 0.0000000e+00 1.4000000e+01 
2.1000000e+01 2.0000000e+00 0.0000000e+00 
2.0000000e+01 0.0000000e+00 1.3000000e+01 
2.0000000e+01 0.0000000e+00 1.2000000e+01 
2.0000000e+01 0.0000000e+00 1.1000000e+01 
2.1000000e+01 0.0000000e+00 1.0000000e+00 
2.0000000e+01 0.0000000e+00 1.0000000e+01 
2.1000000e+01 1.0000000e+00 0.0000000e+00 
2.0000000e+01 0.0000000e+00 9.0000000e+00 
2.0000000e+01 0.0000000e+00 8.0000000e+00 
2.1000000e+01 0.0000000e+00 0.0000000e+00 
2.0000000e+01 0.0000000e+00 7.0000000e+00 
1.9000000e+01 1.0000000e+01 1.4000000e+01 
1.9000000e+01 9.0000000e+00 1.4000000e+01 
2.0000000e+01 0.0000000e+00 6.0000000e+00 
1.9000000e+01 8.0000000e+00 1.4000000e+01 
1.9000000e+01 7.0000000e+00 1.4000000e+01 
1.9000000e+01 6.0000000e+00 1.4000000e+01 
2.0000000e+01 0.0000000e+00 5.0000000e+00 
1.9000000e+01 5.0000000e+00 1.4000000e+01 
2.0000000e+01 1.0000000e+01 0.0000000e+00 
2.0000000e+01 9.0000000e+00 0.0000000e+00 
1.9000000e+01 4.0000000e+00 1.4000000e+01 
2.0000000e+01 8.0000000e+00 0.0000000e+00 
2.0000000e+01 0.0000000e+00 4.0000000e+00 
2.0000000e+01 7.0000000e+00 0.0000000e+00 
1.9000000e+01 3.0000000e+00 1.4000000e+01 
2.0000000e+01 6.0000000e+00 0.0000000e+00 
2.0000000e+01 5.0000000e+00 0.0000000e+00 
2.0000000e+01 0.0000000e+00 3.0000000e+00 
1.9000000e+01 2.0000000e+00 1.4000000e+01 
2.0000000e+01 4.0000000e+00 0.0000000e+00 
1.9000000e+01 1.0000000e+00 1.4000000e+01 
2.0000000e+01 0.0000000e+00 2.0000000e+00 
2.0000000e+01 3.0000000e+00 0.0000000e+00 
2.0000000e+01 2.0000000e+00 0.0000000e+00 
1.9000000e+01 0.0000000e+00 1.4000000e+01 
1.9000000e+01 0.0000000e+00 1.3000000e+01 
1.9000000e+01 0.0000000e+00 1.2000000e+01 
2.0000000e+01 0.0000000e+00 1.0000000e+00 
1.9000000e+01 0.0000000e+00 1.1000000e+01 
2.0000000e+01 1.0000000e+00 0.0000000e+00 
1.9000000e+01 0.0000000e+00 1.0000000e+01 
1.9000000e+01 0.0000000e+00 9.0000000e+00 
2.0000000e+01 0.0000000e+00 0.0000000e+00 
1.9000000e+01 0.0000000e+00 8.0000000e+00 
1.9000000e+01 0.0000000e+00 7.0000000e+00 
1.8000000e+01 1.0000000e+01 1.4000000e+01 
1.9000000e+01 0.0000000e+00 6.0000000e+00 
1.8000000e+01 9.0000000e+00 1.4000000e+01 
1.8000000e+01 8.0000000e+00 1.4000000e+01 
1.8000000e+01 7.0000000e+00 1.4000000e+01 
1.8000000e+01 6.0000000e+00 1.4000000e+01 
1.9000000e+01 0.0000000e+00 5.0000000e+00 
1.8000000e+01 5.0000000e+00 1.4000000e+01 
1.9000000e+01 1.0000000e+01 0.0000000e+00 
1.9000000e+01 9.0000000e+00 0.0000000e+00 
1.8000000e+01 4.0000000e+00 1.4000000e+01 
1.9000000e+01 8.0000000e+00 0.0000000e+00 
1.9000000e+01 0.0000000e+00 4.0000000e+00 
1.9000000e+01 7.0000000e+00 0.0000000e+00 
1.9000000e+01 6.0000000e+00 0.0000000e+00 
1.8000000e+01 3.0000000e+00 1.4000000e+01 
1.9000000e+01 5.0000000e+00 0.0000000e+00 
1.9000000e+01 0.0000000e+00 3.0000000e+00 
1.8000000e+01 2.0000000e+00 1.4000000e+01 
1.9000000e+01 4.0000000e+00 0.0000000e+00 
1.9000000e+01 0.0000000e+00 2.0000000e+00 
1.8000000e+01 1.0000000e+00 1.4000000e+01 
1.9000000e+01 3.0000000e+00 0.0000000e+00 
1.9000000e+01 2.0000000e+00 0.0000000e+00 
1.8000000e+01 0.0000000e+00 1.4000000e+01 
1.8000000e+01 0.0000000e+00 1.3000000e+01 
1.8000000e+01 0.0000000e+00 1.2000000e+01 
1.9000000e+01 0.0000000e+00 1.0000000e+00 
1.8000000e+01 0.0000000e+00 1.1000000e+01 
1.9000000e+01 1.0000000e+00 0.0000000e+00 
1.8000000e+01 0.0000000e+00 1.0000000e+01 
1.8000000e+01 0.0000000e+00 9.0000000e+00 
1.9000000e+01 0.0000000e+00 0.0000000e+00 
1.8000000e+01 0.0000000e+00 8.0000000e+00 
1.8000000e+01 0.0000000e+00 7.0000000e+00 
1.8000000e+01 0.0000000e+00 6.0000000e+00 
1.7000000e+01 1.0000000e+01 1.4000000e+01 
1.7000000e+01 9.0000000e+00 1.4000000e+01 
1.7000000e+01 8.0000000e+00 1.4000000e+01 
1.7000000e+01 7.0000000e+00 1.4000000e+01 
1.8000000e+01 0.0000000e+00 5.0000000e+00 
1.7000000e+01 6.0000000e+00 1.4000000e+01 
1.7000000e+01 5.0000000e+00 1.4000000e+01 
1.8000000e+01 1.0000000e+01 0.0000000e+00 
1.8000000e+01 9.0000000e+00 0.0000000e+00 
1.8000000e+01 8.0000000e+00 0.0000000e+00 
1.8000000e+01 0.0000000e+00 4.0000000e+00 
1.7000000e+01 4.0000000e+00 1.4000000e+01 
1.8000000e+01 7.0000000e+00 0.0000000e+00 
1.8000000e+01 6.0000000e+00 0.0000000e+00 
1.7000000e+01 3.0000000e+00 1.4000000e+01 
1.8000000e+01 5.0000000e+00 0.0000000e+00 
1.8000000e+01 0.0000000e+00 3.0000000e+00 
1.7000000e+01 2.0000000e+00 1.4000000e+01 
1.8000000e+01 4.0000000e+00 0.0000000e+00 
1.8000000e+01 0.0000000e+00 2.0000000e+00 
1.8000000e+01 3.0000000e+00 0.0000000e+00 
1.7000000e+01 1.0000000e+00 1.4000000e+01 
1.8000000e+01 2.0000000e+00 0.0000000e+00 
1.7000000e+01 0.0000000e+00 1.4000000e+01 
1.7000000e+01 0.0000000e+00 1.3000000e+01 
1.8000000e+01 0.0000000e+00 1.0000000e+00 
1.7000000e+01 0.0000000e+00 1.2000000e+01 
1.7000000e+01 0.0000000e+00 1.1000000e+01 
1.8000000e+01 1.0000000e+00 0.0000000e+00 
1.7000000e+01 0.0000000e+00 1.0000000e+01 
1.7000000e+01 0.0000000e+00 9.0000000e+00 
1.8000000e+01 0.0000000e+00 0.0000000e+00 
1.7000000e+01 0.0000000e+00 8.0000000e+00 
1.7000000e+01 0.0000000e+00 7.0000000e+00 
1.7000000e+01 0.0000000e+00 6.0000000e+00 
1.6000000e+01 1.0000000e+01 1.4000000e+01 
1.6000000e+01 9.0000000e+00 1.4000000e+01 
1.6000000e+01 8.0000000e+00 1.4000000e+01 
1.6000000e+01 7.0000000e+00 1.4000000e+01 
1.7000000e+01 0.0000000e+00 5.0000000e+00 
1.6000000e+01 6.0000000e+00 1.4000000e+01 
1.6000000e+01 5.0000000e+00 1.4000000e+01 
1.7000000e+01 1.0000000e+01 0.0000000e+00 
1.7000000e+01 9.0000000e+00 0.0000000e+00 
1.7000000e+01 8.0000000e+00 0.0000000e+00 
1.7000000e+01 0.0000000e+00 4.0000000e+00 
1.6000000e+01 4.0000000e+00 1.4000000e+01 
1.7000000e+01 7.0000000e+00 0.0000000e+00 
1.7000000e+01 6.0000000e+00 0.0000000e+00 
1.6000000e+01 3.0000000e+00 1.4000000e+01 
1.7000000e+01 5.0000000e+00 0.0000000e+00 
1.7000000e+01 0.0000000e+00 3.0000000e+00 
1.6000000e+01 2.0000000e+00 1.4000000e+01 
1.7000000e+01 4.0000000e+00 0.0000000e+00 
1.7000000e+01 0.0000000e+00 2.0000000e+00 
1.7000000e+01 3.0000000e+00 0.0000000e+00 
1.6000000e+01 1.0000000e+00 1.4000000e+01 
1.7000000e+01 2.0000000e+00 0.0000000e+00 
1.6000000e+01 0.0000000e+00 1.4000000e+01 
1.6000000e+01 0.0000000e+00 1.3000000e+01 
1.7000000e+01 0.0000000e+00 1.0000000e+00 
1.6000000e+01 0.0000000e+00 1.2000000e+01 
1.6000000e+01 0.0000000e+00 1.1000000e+01 
1.7000000e+01 1.0000000e+00 0.0000000e+00 
1.6000000e+01 0.0000000e+00 1.0000000e+01 
1.6000000e+01 0.0000000e+00 9.0000000e+00 
1.7000000e+01 0.0000000e+00 0.0000000e+00 
1.6000000e+01 0.0000000e+00 8.0000000e+00 
1.6000000e+01 0.0000000e+00 7.0000000e+00 
1.6000000e+01 0.0000000e+00 6.0000000e+00 
1.5000000e+01 1.0000000e+01 1.4000000e+01 
1.5000000e+01 9.0000000e+00 1.4000000e+01 
1.5000000e+01 8.0000000e+00 1.4000000e+01 
1.5000000e+01 7.0000000e+00 1.4000000e+01 
1.6000000e+01 0.0000000e+00 5.0000000e+00 
1.5000000e+01 6.0000000e+00 1.4000000e+01 
1.5000000e+01 5.0000000e+00 1.4000000e+01 
1.6000000e+01 1.0000000e+01 0.0000000e+00 
1.6000000e+01 9.0000000e+00 0.0000000e+00 
1.6000000e+01 8.0000000e+00 0.0000000e+00 
1.6000000e+01 0.0000000e+00 4.0000000e+00 
1.6000000e+01 7.0000000e+00 0.0000000e+00 
1.5000000e+01 4.0000000e+00 1.4000000e+01 
1.6000000e+01 6.0000000e+00 0.0000000e+00 
1.5000000e+01 3.0000000e+00 1.4000000e+01 
1.6000000e+01 5.0000000e+00 0.0000000e+00 
1.6000000e+01 0.0000000e+00 3.0000000e+00 
1.6000000e+01 4.0000000e+00 0.0000000e+00 
1.5000000e+01 2.0000000e+00 1.4000000e+01 
1.6000000e+01 0.0000000e+00 2.0000000e+00 
1.6000000e+01 3.0000000e+00 0.0000000e+00 
1.5000000e+01 1.0000000e+00 1.4000000e+01 
1.6000000e+01 2.0000000e+00 0.0000000e+00 
1.5000000e+01 0.0000000e+00 1.4000000e+01 
1.6000000e+01 0.0000000e+00 1.0000000e+00 
1.5000000e+01 0.0000000e+00 1.3000000e+01 
1.5000000e+01 0.0000000e+00 1.2000000e+01 
1.6000000e+01 1.0000000e+00 0.0000000e+00 
1.5000000e+01 0.0000000e+00 1.1000000e+01 
1.5000000e+01 0.0000000e+00 1.0000000e+01 
1.5000000e+01 0.0000000e+00 9.0000000e+00 
1.6000000e+01 0.0000000e+00 0.0000000e+00 
1.5000000e+01 0.0000000e+00 8.0000000e+00 
1.5000000e+01 0.0000000e+00 7.0000000e+00 
1.5000000e+01 0.0000000e+00 6.0000000e+00 
1.4000000e+01 1.0000000e+01 1.4000000e+01 
1.4000000e+01 9.0000000e+00 1.4000000e+01 
1.4000000e+01 8.0000000e+00 1.4000000e+01 
1.4000000e+01 7.0000000e+00 1.4000000e+01 
1.5000000e+01 0.0000000e+00 5.0000000e+00 
1.4000000e+01 6.0000000e+00 1.4000000e+01 
1.5000000e+01 1.0000000e+01 0.0000000e+00 
1.4000000e+01 5.0000000e+00 1.4000000e+01 
1.5000000e+01 9.0000000e+00 0.0000000e+00 
1.5000000e+01 8.0000000e+00 0.0000000e+00 
1.5000000e+01 0.0000000e+00 4.0000000e+00 
1.5000000e+01 7.0000000e+00 0.0000000e+00 
1.4000000e+01 4.0000000e+00 1.4000000e+01 
1.5000000e+01 6.0000000e+00 0.0000000e+00 
1.4000000e+01 3.0000000e+00 1.4000000e+01 
1.5000000e+01 5.0000000e+00 0.0000000e+00 
1.5000000e+01 0.0000000e+00 3.0000000e+00 
1.5000000e+01 4.0000000e+00 0.0000000e+00 
1.4000000e+01 2.0000000e+00 1.4000000e+01 
1.5000000e+01 0.0000000e+00 2.0000000e+00 
1.5000000e+01 3.0000000e+00 0.0000000e+00 
1.4000000e+01 1.0000000e+00 1.4000000e+01 
1.5000000e+01 2.0000000e+00 0.0000000e+00 
1.5000000e+01 0.0000000e+00 1.0000000e+00 
1.4000000e+01 0.0000000e+00 1.4000000e+01 
1.4000000e+01 0.0000000e+00 1.3000000e+01 
1.4000000e+01 0.0000000e+00 1.2000000e+01 
1.5000000e+01 1.0000000e+00 0.0000000e+00 
1.4000000e+01 0.0000000e+00 1.1000000e+01 
1.4000000e+01 0.0000000e+00 1.0000000e+01 
1.5000000e+01 0.0000000e+00 0.0000000e+00 
1.4000000e+01 0.0000000e+00 9.0000000e+00 
1.4000000e+01 0.0000000e+00 8.0000000e+00 
1.4000000e+01 0.0000000e+00 7.0000000e+00 
1.4000000e+01 0.0000000e+00 6.0000000e+00 
1.3000000e+01 1.0000000e+01 1.4000000e+01 
1.3000000e+01 9.0000000e+00 1.4000000e+01 
1.3000000e+01 8.0000000e+00 1.4000000e+01 
1.4000000e+01 0.0000000e+00 5.0000000e+00 
1.3000000e+01 7.0000000e+00 1.4000000e+01 
1.3000000e+01 6.0000000e+00 1.4000000e+01 
1.4000000e+01 1.0000000e+01 0.0000000e+00 
1.4000000e+01 9.0000000e+00 0.0000000e+00 
1.3000000e+01 5.0000000e+00 1.4000000e+01 
1.4000000e+01 8.0000000e+00 0.0000000e+00 
1.4000000e+01 0.0000000e+00 4.0000000e+00 
1.4000000e+01 7.0000000e+00 0.0000000e+00 
1.3000000e+01 4.0000000e+00 1.4000000e+01 
1.4000000e+01 6.0000000e+00 0.0000000e+00 
1.4000000e+01 5.0000000e+00 0.0000000e+00 
1.4000000e+01 0.0000000e+00 3.0000000e+00 
1.3000000e+01 3.0000000e+00 1.4000000e+01 
1.4000000e+01 4.0000000e+00 0.0000000e+00 
1.3000000e+01 2.0000000e+00 1.4000000e+01 
1.4000000e+01 0.0000000e+00 2.0000000e+00 
1.4000000e+01 3.0000000e+00 0.0000000e+00 
1.3000000e+01 1.0000000e+00 1.4000000e+01 
1.4000000e+01 2.0000000e+00 0.0000000e+00 
1.4000000e+01 0.0000000e+00 1.0000000e+00 
1.3000000e+01 0.0000000e+00 1.4000000e+01 
1.3000000e+01 0.0000000e+00 1.3000000e+01 
1.4000000e+01 1.0000000e+00 0.0000000e+00 
1.3000000e+01 0.0000000e+00 1.2000000e+01 
1.3000000e+01 0.0000000e+00 1.1000000e+01 
1.3000000e+01 0.0000000e+00 1.0000000e+01 
1.4000000e+01 0.0000000e+00 0.0000000e+00 
1.3000000e+01 0.0000000e+00 9.0000000e+00 
1.3000000e+01 0.0000000e+00 8.0000000e+00 
1.3000000e+01 0.0000000e+00 7.0000000e+00 
1.3000000e+01 0.0000000e+00 6.0000000e+00 
1.2000000e+01 1.0000000e+01 1.4000000e+01 
1.2000000e+01 9.0000000e+00 1.4000000e+01 
1.2000000e+01 8.0000000e+00 1.4000000e+01 
1.3000000e+01 0.0000000e+00 5.0000000e+00 
1.2000000e+01 7.0000000e+00 1.4000000e+01 
1.2000000e+01 6.0000000e+00 1.4000000e+01 
1.3000000e+01 1.0000000e+01 0.0000000e+00 
1.3000000e+01 9.0000000e+00 0.0000000e+00 
1.2000000e+01 5.0000000e+00 1.4000000e+01 
1.3000000e+01 8.0000000e+00 0.0000000e+00 
1.3000000e+01 0.0000000e+00 4.0000000e+00 
1.3000000e+01 7.0000000e+00 0.0000000e+00 
1.2000000e+01 4.0000000e+00 1.4000000e+01 
1.3000000e+01 6.0000000e+00 0.0000000e+00 
1.3000000e+01 5.0000000e+00 0.0000000e+00 
1.3000000e+01 0.0000000e+00 3.0000000e+00 
1.2000000e+01 3.0000000e+00 1.4000000e+01 
1.3000000e+01 4.0000000e+00 0.0000000e+00 
1.2000000e+01 2.0000000e+00 1.4000000e+01 
1.3000000e+01 0.0000000e+00 2.0000000e+00 
1.3000000e+01 3.0000000e+00 0.0000000e+00 
1.2000000e+01 1.0000000e+00 1.4000000e+01 
1.3000000e+01 2.0000000e+00 0.0000000e+00 
1.3000000e+01 0.0000000e+00 1.0000000e+00 
1.2000000e+01 0.0000000e+00 1.4000000e+01 
1.2000000e+01 0.0000000e+00 1.3000000e+01 
1.3000000e+01 1.0000000e+00 0.0000000e+00 
1.2000000e+01 0.0000000e+00 1.2000000e+01 
1.2000000e+01 0.0000000e+00 1.1000000e+01 
1.2000000e+01 0.0000000e+00 1.0000000e+01 
1.3000000e+01 0.0000000e+00 0.0000000e+00 
1.2000000e+01 0.0000000e+00 9.0000000e+00 
1.2000000e+01 0.0000000e+00 8.0000000e+00 
1.2000000e+01 0.0000000e+00 7.0000000e+00 
1.2000000e+01 0.0000000e+00 6.0000000e+00 
1.1000000e+01 1.0000000e+01 1.4000000e+01 
1.1000000e+01 9.0000000e+00 1.4000000e+01 
1.2000000e+01 0.0000000e+00 5.0000000e+00 
1.1000000e+01 8.0000000e+00 1.4000000e+01 
1.1000000e+01 7.0000000e+00 1.4000000e+01 
1.1000000e+01 6.0000000e+00 1.4000000e+01 
1.2000000e+01 1.0000000e+01 0.0000000e+00 
1.2000000e+01 9.0000000e+00 0.0000000e+00 
1.2000000e+01 8.0000000e+00 0.0000000e+00 
1.2000000e+01 0.0000000e+00 4.0000000e+00 
1.1000000e+01 5.0000000e+00 1.4000000e+01 
1.2000000e+01 7.0000000e+00 0.0000000e+00 
1.2000000e+01 6.0000000e+00 0.0000000e+00 
1.1000000e+01 4.0000000e+00 1.4000000e+01 
1.2000000e+01 5.0000000e+00 0.0000000e+00 
1.2000000e+01 0.0000000e+00 3.0000000e+00 
1.1000000e+01 3.0000000e+00 1.4000000e+01 
1.2000000e+01 4.0000000e+00 0.0000000e+00 
1.1000000e+01 2.0000000e+00 1.4000000e+01 
1.2000000e+01 0.0000000e+00 2.0000000e+00 
1.2000000e+01 3.0000000e+00 0.0000000e+00 
1.1000000e+01 1.0000000e+00 1.4000000e+01 
1.2000000e+01 2.0000000e+00 0.0000000e+00 
1.2000000e+01 0.0000000e+00 1.0000000e+00 
1.1000000e+01 0.0000000e+00 1.4000000e+01 
1.2000000e+01 1.0000000e+00 0.0000000e+00 
1.1000000e+01 0.0000000e+00 1.3000000e+01 
1.1000000e+01 0.0000000e+00 1.2000000e+01 
1.1000000e+01 0.0000000e+00 1.1000000e+01 
1.1000000e+01 0.0000000e+00 1.0000000e+01 
1.2000000e+01 0.0000000e+00 0.0000000e+00 
1.1000000e+01 0.0000000e+00 9.0000000e+00 
1.1000000e+01 0.0000000e+00 8.0000000e+00 
1.1000000e+01 0.0000000e+00 7.0000000e+00 
1.1000000e+01 0.0000000e+00 6.0000000e+00 
1.0000000e+01 1.0000000e+01 1.4000000e+01 
1.0000000e+01 9.0000000e+00 1.4000000e+01 
1.1000000e+01 0.0000000e+00 5.0000000e+00 
1.0000000e+01 8.0000000e+00 1.4000000e+01 
1.0000000e+01 7.0000000e+00 1.4000000e+01 
1.0000000e+01 6.0000000e+00 1.4000000e+01 
1.1000000e+01 1.0000000e+01 0.0000000e+00 
1.1000000e+01 9.0000000e+00 0.0000000e+00 
1.1000000e+01 8.0000000e+00 0.0000000e+00 
1.1000000e+01 0.0000000e+00 4.0000000e+00 
1.0000000e+01 5.0000000e+00 1.4000000e+01 
1.1000000e+01 7.0000000e+00 0.0000000e+00 
1.1000000e+01 6.0000000e+00 0.0000000e+00 
1.0000000e+01 4.0000000e+00 1.4000000e+01 
1.1000000e+01 5.0000000e+00 0.0000000e+00 
1.1000000e+01 0.0000000e+00 3.0000000e+00 
1.0000000e+01 3.0000000e+00 1.4000000e+01 
1.1000000e+01 4.0000000e+00 0.0000000e+00 
1.0000000e+01 2.0000000e+00 1.4000000e+01 
1.1000000e+01 0.0000000e+00 2.0000000e+00 
1.1000000e+01 3.0000000e+00 0.0000000e+00 
1.1000000e+01 2.0000000e+00 0.0000000e+00 
1.0000000e+01 1.0000000e+00 1.4000000e+01 
1.1000000e+01 0.0000000e+00 1.0000000e+00 
1.1000000e+01 1.0000000e+00 0.0000000e+00 
1.0000000e+01 0.0000000e+00 1.4000000e+01 
1.0000000e+01 0.0000000e+00 1.3000000e+01 
1.0000000e+01 0.0000000e+00 1.2000000e+01 
1.0000000e+01 0.0000000e+00 1.1000000e+01 
1.0000000e+01 0.0000000e+00 1.0000000e+01 
1.1000000e+01 0.0000000e+00 0.0000000e+00 
1.0000000e+01 0.0000000e+00 9.0000000e+00 
1.0000000e+01 0.0000000e+00 8.0000000e+00 
1.0000000e+01 0.0000000e+00 7.0000000e+00 
1.0000000e+01 0.0000000e+00 6.0000000e+00 
9.0000000e+00 1.0000000e+01 1.4000000e+01 
1.0000000e+01 0.0000000e+00 5.0000000e+00 
9.0000000e+00 9.0000000e+00 1.4000000e+01 
9.0000000e+00 8.0000000e+00 1.4000000e+01 
9.0000000e+00 7.0000000e+00 1.4000000e+01 
1.0000000e+01 1.0000000e+01 0.0000000e+00 
1.0000000e+01 9.0000000e+00 0.0000000e+00 
9.0000000e+00 6.0000000e+00 1.4000000e+01 
1.0000000e+01 8.0000000e+00 0.0000000e+00 
1.0000000e+01 0.0000000e+00 4.0000000e+00 
1.0000000e+01 7.0000000e+00 0.0000000e+00 
9.0000000e+00 5.0000000e+00 1.4000000e+01 
1.0000000e+01 6.0000000e+00 0.0000000e+00 
9.0000000e+00 4.0000000e+00 1.4000000e+01 
1.0000000e+01 5.0000000e+00 0.0000000e+00 
1.0000000e+01 0.0000000e+00 3.0000000e+00 
9.0000000e+00 3.0000000e+00 1.4000000e+01 
1.0000000e+01 4.0000000e+00 0.0000000e+00 
1.0000000e+01 0.0000000e+00 2.0000000e+00 
1.0000000e+01 3.0000000e+00 0.0000000e+00 
9.0000000e+00 2.0000000e+00 1.4000000e+01 
1.0000000e+01 2.0000000e+00 0.0000000e+00 
9.0000000e+00 1.0000000e+00 1.4000000e+01 
1.0000000e+01 0.0000000e+00 1.0000000e+00 
1.0000000e+01 1.0000000e+00 0.0000000e+00 
9.0000000e+00 0.0000000e+00 1.4000000e+01 
9.0000000e+00 0.0000000e+00 1.3000000e+01 
9.0000000e+00 0.0000000e+00 1.2000000e+01 
9.0000000e+00 0.0000000e+00 1.1000000e+01 
1.0000000e+01 0.0000000e+00 0.0000000e+00 
9.0000000e+00 0.0000000e+00 1.0000000e+01 
9.0000000e+00 0.0000000e+00 9.0000000e+00 
9.0000000e+00 0.0000000e+00 8.0000000e+00 
9.0000000e+00 0.0000000e+00 7.0000000e+00 
9.0000000e+00 0.0000000e+00 6.0000000e+00 
9.0000000e+00 0.0000000e+00 5.0000000e+00 
8.0000000e+00 1.0000000e+01 1.4000000e+01 
8.0000000e+00 9.0000000e+00 1.4000000e+01 
8.0000000e+00 8.0000000e+00 1.4000000e+01 
8.0000000e+00 7.0000000e+00 1.4000000e+01 
9.0000000e+00 1.0000000e+01 0.0000000e+00 
9.0000000e+00 9.0000000e+00 0.0000000e+00 
8.0000000e+00 6.0000000e+00 1.4000000e+01 
9.0000000e+00 8.0000000e+00 0.0000000e+00 
9.0000000e+00 0.0000000e+00 4.0000000e+00 
9.0000000e+00 7.0000000e+00 0.0000000e+00 
8.0000000e+00 5.0000000e+00 1.4000000e+01 
9.0000000e+00 6.0000000e+00 0.0000000e+00 
8.0000000e+00 4.0000000e+00 1.4000000e+01 
9.0000000e+00 5.0000000e+00 0.0000000e+00 
9.0000000e+00 0.0000000e+00 3.0000000e+00 
9.0000000e+00 4.0000000e+00 0.0000000e+00 
8.0000000e+00 3.0000000e+00 1.4000000e+01 
9.0000000e+00 0.0000000e+00 2.0000000e+00 
9.0000000e+00 3.0000000e+00 0.0000000e+00 
8.0000000e+00 2.0000000e+00 1.4000000e+01 
9.0000000e+00 2.0000000e+00 0.0000000e+00 
8.0000000e+00 1.0000000e+00 1.4000000e+01 
9.0000000e+00 0.0000000e+00 1.0000000e+00 
9.0000000e+00 1.0000000e+00 0.0000000e+00 
8.0000000e+00 0.0000000e+00 1.4000000e+01 
8.0000000e+00 0.0000000e+00 1.3000000e+01 
8.0000000e+00 0.0000000e+00 1.2000000e+01 
8.0000000e+00 0.0000000e+00 1.1000000e+01 
9.0000000e+00 0.0000000e+00 0.0000000e+00 
8.0000000e+00 0.0000000e+00 1.0000000e+01 
8.0000000e+00 0.0000000e+00 9.0000000e+00 
8.0000000e+00 0.0000000e+00 8.0000000e+00 
8.0000000e+00 0.0000000e+00 7.0000000e+00 
8.0000000e+00 0.0000000e+00 6.0000000e+00 
8.0000000e+00 0.0000000e+00 5.0000000e+00 
7.0000000e+00 1.0000000e+01 1.4000000e+01 
7.0000000e+00 9.0000000e+00 1.4000000e+01 
7.0000000e+00 8.0000000e+00 1.4000000e+01 
7.0000000e+00 7.0000000e+00 1.4000000e+01 
8.0000000e+00 1.0000000e+01 0.0000000e+00 
8.0000000e+00 9.0000000e+00 0.0000000e+00 
8.0000000e+00 8.0000000e+00 0.0000000e+00 
8.0000000e+00 0.0000000e+00 4.0000000e+00 
7.0000000e+00 6.0000000e+00 1.4000000e+01 
8.0000000e+00 7.0000000e+00 0.0000000e+00 
7.0000000e+00 5.0000000e+00 1.4000000e+01 
8.0000000e+00 6.0000000e+00 0.0000000e+00 
8.0000000e+00 5.0000000e+00 0.0000000e+00 
8.0000000e+00 0.0000000e+00 3.0000000e+00 
7.0000000e+00 4.0000000e+00 1.4000000e+01 
8.0000000e+00 4.0000000e+00 0.0000000e+00 
7.0000000e+00 3.0000000e+00 1.4000000e+01 
8.0000000e+00 0.0000000e+00 2.0000000e+00 
8.0000000e+00 3.0000000e+00 0.0000000e+00 
7.0000000e+00 2.0000000e+00 1.4000000e+01 
8.0000000e+00 2.0000000e+00 0.0000000e+00 
7.0000000e+00 1.0000000e+00 1.4000000e+01 
8.0000000e+00 0.0000000e+00 1.0000000e+00 
8.0000000e+00 1.0000000e+00 0.0000000e+00 
7.0000000e+00 0.0000000e+00 1.4000000e+01 
7.0000000e+00 0.0000000e+00 1.3000000e+01 
7.0000000e+00 0.0000000e+00 1.2000000e+01 
7.0000000e+00 0.0000000e+00 1.1000000e+01 
8.0000000e+00 0.0000000e+00 0.0000000e+00 
7.0000000e+00 0.0000000e+00 1.0000000e+01 
7.0000000e+00 0.0000000e+00 9.0000000e+00 
7.0000000e+00 0.0000000e+00 8.0000000e+00 
7.0000000e+00 0.0000000e+00 7.0000000e+00 
7.0000000e+00 0.0000000e+00 6.0000000e+00 
7.0000000e+00 0.0000000e+00 5.0000000e+00 
6.0000000e+00 1.0000000e+01 1.4000000e+01 
6.0000000e+00 9.0000000e+00 1.4000000e+01 
6.0000000e+00 8.0000000e+00 1.4000000e+01 
7.0000000e+00 1.0000000e+01 0.0000000e+00 
6.0000000e+00 7.0000000e+00 1.4000000e+01 
7.0000000e+00 9.0000000e+00 0.0000000e+00 
7.0000000e+00 8.0000000e+00 0.0000000e+00 
7.0000000e+00 0.0000000e+00 4.0000000e+00 
6.0000000e+00 6.0000000e+00 1.4000000e+01 
7.0000000e+00 7.0000000e+00 0.0000000e+00 
6.0000000e+00 5.0000000e+00 1.4000000e+01 
7.0000000e+00 6.0000000e+00 0.0000000e+00 
7.0000000e+00 5.0000000e+00 0.0000000e+00 
7.0000000e+00 0.0000000e+00 3.0000000e+00 
6.0000000e+00 4.0000000e+00 1.4000000e+01 
7.0000000e+00 4.0000000e+00 0.0000000e+00 
6.0000000e+00 3.0000000e+00 1.4000000e+01 
7.0000000e+00 0.0000000e+00 2.0000000e+00 
7.0000000e+00 3.0000000e+00 0.0000000e+00 
6.0000000e+00 2.0000000e+00 1.4000000e+01 
7.0000000e+00 2.0000000e+00 0.0000000e+00 
6.0000000e+00 1.0000000e+00 1.4000000e+01 
7.0000000e+00 0.0000000e+00 1.0000000e+00 
7.0000000e+00 1.0000000e+00 0.0000000e+00 
6.0000000e+00 0.0000000e+00 1.4000000e+01 
6.0000000e+00 0.0000000e+00 1.3000000e+01 
6.0000000e+00 0.0000000e+00 1.2000000e+01 
7.0000000e+00 0.0000000e+00 0.0000000e+00 
6.0000000e+00 0.0000000e+00 1.1000000e+01 
6.0000000e+00 0.0000000e+00 1.0000000e+01 
6.0000000e+00 0.0000000e+00 9.0000000e+00 
6.0000000e+00 0.0000000e+00 8.0000000e+00 
6.0000000e+00 0.0000000e+00 7.0000000e+00 
6.0000000e+00 0.0000000e+00 6.0000000e+00 
6.0000000e+00 0.0000000e+00 5.0000000e+00 
5.0000000e+00 1.0000000e+01 1.4000000e+01 
5.0000000e+00 9.0000000e+00 1.4000000e+01 
5.0000000e+00 8.0000000e+00 1.4000000e+01 
6.0000000e+00 1.0000000e+01 0.0000000e+00 
6.0000000e+00 9.0000000e+00 0.0000000e+00 
5.0000000e+00 7.0000000e+00 1.4000000e+01 
6.0000000e+00 8.0000000e+00 0.0000000e+00 
6.0000000e+00 0.0000000e+00 4.0000000e+00 
6.0000000e+00 7.0000000e+00 0.0000000e+00 
5.0000000e+00 6.0000000e+00 1.4000000e+01 
6.0000000e+00 6.0000000e+00 0.0000000e+00 
5.0000000e+00 5.0000000e+00 1.4000000e+01 
6.0000000e+00 5.0000000e+00 0.0000000e+00 
6.0000000e+00 0.0000000e+00 3.0000000e+00 
5.0000000e+00 4.0000000e+00 1.4000000e+01 
6.0000000e+00 4.0000000e+00 0.0000000e+00 
5.0000000e+00 3.0000000e+00 1.4000000e+01 
6.0000000e+00 0.0000000e+00 2.0000000e+00 
6.0000000e+00 3.0000000e+00 0.0000000e+00 
5.0000000e+00 2.0000000e+00 1.4000000e+01 
6.0000000e+00 2.0000000e+00 0.0000000e+00 
6.0000000e+00 0.0000000e+00 1.0000000e+00 
5.0000000e+00 1.0000000e+00 1.4000000e+01 
6.0000000e+00 1.0000000e+00 0.0000000e+00 
5.0000000e+00 0.0000000e+00 1.4000000e+01 
5.0000000e+00 0.0000000e+00 1.3000000e+01 
5.0000000e+00 0.0000000e+00 1.2000000e+01 
6.0000000e+00 0.0000000e+00 0.0000000e+00 
5.0000000e+00 0.0000000e+00 1.1000000e+01 
5.0000000e+00 0.0000000e+00 1.0000000e+01 
5.0000000e+00 0.0000000e+00 9.0000000e+00 
5.0000000e+00 0.0000000e+00 8.0000000e+00 
5.0000000e+00 0.0000000e+00 7.0000000e+00 
5.0000000e+00 0.0000000e+00 6.0000000e+00 
5.0000000e+00 0.0000000e+00 5.0000000e+00 
4.0000000e+00 1.0000000e+01 1.4000000e+01 
4.0000000e+00 9.0000000e+00 1.4000000e+01 
4.0000000e+00 8.0000000e+00 1.4000000e+01 
5.0000000e+00 1.0000000e+01 0.0000000e+00 
5.0000000e+00 9.0000000e+00 0.0000000e+00 
5.0000000e+00 8.0000000e+00 0.0000000e+00 
5.0000000e+00 0.0000000e+00 4.0000000e+00 
4.0000000e+00 7.0000000e+00 1.4000000e+01 
5.0000000e+00 7.0000000e+00 0.0000000e+00 
4.0000000e+00 6.0000000e+00 1.4000000e+01 
5.0000000e+00 6.0000000e+00 0.0000000e+00 
4.0000000e+00 5.0000000e+00 1.4000000e+01 
5.0000000e+00 5.0000000e+00 0.0000000e+00 
5.0000000e+00 0.0000000e+00 3.0000000e+00 
4.0000000e+00 4.0000000e+00 1.4000000e+01 
5.0000000e+00 4.0000000e+00 0.0000000e+00 
4.0000000e+00 3.0000000e+00 1.4000000e+01 
5.0000000e+00 0.0000000e+00 2.0000000e+00 
5.0000000e+00 3.0000000e+00 0.0000000e+00 
4.0000000e+00 2.0000000e+00 1.4000000e+01 
5.0000000e+00 2.0000000e+00 0.0000000e+00 
5.0000000e+00 0.0000000e+00 1.0000000e+00 
4.0000000e+00 1.0000000e+00 1.4000000e+01 
5.0000000e+00 1.0000000e+00 0.0000000e+00 
4.0000000e+00 0.0000000e+00 1.4000000e+01 
4.0000000e+00 0.0000000e+00 1.3000000e+01 
4.0000000e+00 0.0000000e+00 1.2000000e+01 
5.0000000e+00 0.0000000e+00 0.0000000e+00 
4.0000000e+00 0.0000000e+00 1.1000000e+01 
4.0000000e+00 0.0000000e+00 1.0000000e+01 
4.0000000e+00 0.0000000e+00 9.0000000e+00 
4.0000000e+00 0.0000000e+00 8.0000000e+00 
4.0000000e+00 0.0000000e+00 7.0000000e+00 
4.0000000e+00 0.0000000e+00 6.0000000e+00 
4.0000000e+00 0.0000000e+00 5.0000000e+00 
3.0000000e+00 1.0000000e+01 1.4000000e+01 
3.0000000e+00 9.0000000e+00 1.4000000e+01 
4.0000000e+00 1.0000000e+01 0.0000000e+00 
4.0000000e+00 9.0000000e+00 0.0000000e+00 
3.0000000e+00 8.0000000e+00 1.4000000e+01 
4.0000000e+00 8.0000000e+00 0.0000000e+00 
4.0000000e+00 0.0000000e+00 4.0000000e+00 
3.0000000e+00 7.0000000e+00 1.4000000e+01 
4.0000000e+00 7.0000000e+00 0.0000000e+00 
3.0000000e+00 6.0000000e+00 1.4000000e+01 
4.0000000e+00 6.0000000e+00 0.0000000e+00 
3.0000000e+00 5.0000000e+00 1.4000000e+01 
4.0000000e+00 5.0000000e+00 0.0000000e+00 
4.0000000e+00 0.0000000e+00 3.0000000e+00 
3.0000000e+00 4.0000000e+00 1.4000000e+01 
4.0000000e+00 4.0000000e+00 0.0000000e+00 
3.0000000e+00 3.0000000e+00 1.4000000e+01 
4.0000000e+00 0.0000000e+00 2.0000000e+00 
4.0000000e+00 3.0000000e+00 0.0000000e+00 
3.0000000e+00 2.0000000e+00 1.4000000e+01 
4.0000000e+00 2.0000000e+00 0.0000000e+00 
4.0000000e+00 0.0000000e+00 1.0000000e+00 
3.0000000e+00 1.0000000e+00 1.4000000e+01 
4.0000000e+00 1.0000000e+00 0.0000000e+00 
3.0000000e+00 0.0000000e+00 1.4000000e+01 
3.0000000e+00 0.0000000e+00 1.3000000e+01 
4.0000000e+00 0.0000000e+00 0.0000000e+00 
3.0000000e+00 0.0000000e+00 1.2000000e+01 
3.0000000e+00 0.0000000e+00 1.1000000e+01 
3.0000000e+00 0.0000000e+00 1.0000000e+01 
3.0000000e+00 0.0000000e+00 9.0000000e+00 
3.0000000e+00 0.0000000e+00 8.0000000e+00 
3.0000000e+00 0.0000000e+00 7.0000000e+00 
3.0000000e+00 0.0000000e+00 6.0000000e+00 
3.0000000e+00 0.0000000e+00 5.0000000e+00 
2.0000000e+00 1.0000000e+01 1.4000000e+01 
3.0000000e+00 1.0000000e+01 0.0000000e+00 
2.0000000e+00 9.0000000e+00 1.4000000e+01 
3.0000000e+00 9.0000000e+00 0.0000000e+00 
2.0000000e+00 8.0000000e+00 1.4000000e+01 
3.0000000e+00 8.0000000e+00 0.0000000e+00 
3.0000000e+00 0.0000000e+00 4.0000000e+00 
2.0000000e+00 7.0000000e+00 1.4000000e+01 
3.0000000e+00 7.0000000e+00 0.0000000e+00 
2.0000000e+00 6.0000000e+00 1.4000000e+01 
3.0000000e+00 6.0000000e+00 0.0000000e+00 
2.0000000e+00 5.0000000e+00 1.4000000e+01 
3.0000000e+00 5.0000000e+00 0.0000000e+00 
3.0000000e+00 0.0000000e+00 3.0000000e+00 
2.0000000e+00 4.0000000e+00 1.4000000e+01 
3.0000000e+00 4.0000000e+00 0.0000000e+00 
3.0000000e+00 0.0000000e+00 2.0000000e+00 
2.0000000e+00 3.0000000e+00 1.4000000e+01 
3.0000000e+00 3.0000000e+00 0.0000000e+00 
2.0000000e+00 2.0000000e+00 1.4000000e+01 
3.0000000e+00 2.0000000e+00 0.0000000e+00 
3.0000000e+00 0.0000000e+00 1.0000000e+00 
2.0000000e+00 1.0000000e+00 1.4000000e+01 
3.0000000e+00 1.0000000e+00 0.0000000e+00 
2.0000000e+00 0.0000000e+00 1.4000000e+01 
3.0000000e+00 0.0000000e+00 0.0000000e+00 
2.0000000e+00 0.0000000e+00 1.3000000e+01 
2.0000000e+00 0.0000000e+00 1.2000000e+01 
2.0000000e+00 0.0000000e+00 1.1000000e+01 
2.0000000e+00 0.0000000e+00 1.0000000e+01 
2.0000000e+00 0.0000000e+00 9.0000000e+00 
2.0000000e+00 0.0000000e+00 8.0000000e+00 
2.0000000e+00 0.0000000e+00 7.0000000e+00 
2.0000000e+00 0.0000000e+00 6.0000000e+00 
2.0000000e+00 0.0000000e+00 5.0000000e+00 
2.0000000e+00 1.0000000e+01 0.0000000e+00 
1.0000000e+00 1.0000000e+01 1.4000000e+01 
2.0000000e+00 9.0000000e+00 0.0000000e+00 
1.0000000e+00 9.0000000e+00 1.4000000e+01 
2.0000000e+00 8.0000000e+00 0.0000000e+00 
2.0000000e+00 0.0000000e+00 4.0000000e+00 
1.0000000e+00 8.0000000e+00 1.4000000e+01 
2.0000000e+00 7.0000000e+00 0.0000000e+00 
1.0000000e+00 7.0000000e+00 1.4000000e+01 
2.0000000e+00 6.0000000e+00 0.0000000e+00 
1.0000000e+00 6.0000000e+00 1.4000000e+01 
2.0000000e+00 5.0000000e+00 0.0000000e+00 
2.0000000e+00 0.0000000e+00 3.0000000e+00 
1.0000000e+00 5.0000000e+00 1.4000000e+01 
2.0000000e+00 4.0000000e+00 0.0000000e+00 
1.0000000e+00 4.0000000e+00 1.4000000e+01 
2.0000000e+00 0.0000000e+00 2.0000000e+00 
2.0000000e+00 3.0000000e+00 0.0000000e+00 
1.0000000e+00 3.0000000e+00 1.4000000e+01 
2.0000000e+00 2.0000000e+00 0.0000000e+00 
1.0000000e+00 2.0000000e+00 1.4000000e+01 
2.0000000e+00 0.0000000e+00 1.0000000e+00 
2.0000000e+00 1.0000000e+00 0.0000000e+00 
1.0000000e+00 1.0000000e+00 1.4000000e+01 
2.0000000e+00 0.0000000e+00 0.0000000e+00 
1.0000000e+00 0.0000000e+00 1.4000000e+01 
1.0000000e+00 0.0000000e+00 1.3000000e+01 
1.0000000e+00 0.0000000e+00 1.2000000e+01 
1.0000000e+00 0.0000000e+00 1.1000000e+01 
1.0000000e+00 0.0000000e+00 1.0000000e+01 
1.0000000e+00 0.0000000e+00 9.0000000e+00 
1.0000000e+00 0.0000000e+00 8.0000000e+00 
1.0000000e+00 0.0000000e+00 7.0000000e+00 
1.0000000e+00 0.0000000e+00 6.0000000e+00 
1.0000000e+00 0.0000000e+00 5.0000000e+00 
1.0000000e+00 1.0000000e+01 0.0000000e+00 
1.0000000e+00 9.0000000e+00 0.0000000e+00 
0.0000000e+00 1.0000000e+01 1.4000000e+01 
0.0000000e+00 9.0000000e+00 1.4000000e+01 
1.0000000e+00 8.0000000e+00 0.0000000e+00 
1.0000000e+00 0.0000000e+00 4.0000000e+00 
0.0000000e+00 8.0000000e+00 1.4000000e+01 
1.0000000e+00 7.0000000e+00 0.0000000e+00 
0.0000000e+00 7.0000000e+00 1.4000000e+01 
1.0000000e+00 6.0000000e+00 0.0000000e+00 
0.0000000e+00 6.0000000e+00 1.4000000e+01 
1.0000000e+00 5.0000000e+00 0.0000000e+00 
1.0000000e+00 0.0000000e+00 3.0000000e+00 
0.0000000e+00 5.0000000e+00 1.4000000e+01 
1.0000000e+00 4.0000000e+00 0.0000000e+00 
0.0000000e+00 4.0000000e+00 1.4000000e+01 
1.0000000e+00 0.0000000e+00 2.0000000e+00 
1.0000000e+00 3.0000000e+00 0.0000000e+00 
0.0000000e+00 3.0000000e+00 1.4000000e+01 
1.0000000e+00 2.0000000e+00 0.0000000e+00 
0.0000000e+00 2.0000000e+00 1.4000000e+01 
1.0000000e+00 0.0000000e+00 1.0000000e+00 
1.0000000e+00 1.0000000e+00 0.0000000e+00 
0.0000000e+00 1.0000000e+00 1.4000000e+01 
1.0000000e+00 0.0000000e+00 0.0000000e+00 
0.0000000e+00 0.0000000e+00 1.4000000e+01 
0.0000000e+00 0.0000000e+00 1.3000000e+01 
0.0000000e+00 0.0000000e+00 1.2000000e+01 
0.0000000e+00 0.0000000e+00 1.1000000e+01 
0.0000000e+00 0.0000000e+00 1.0000000e+01 
0.0000000e+00 0.0000000e+00 9.0000000e+00 
0.0000000e+00 0.0000000e+00 8.0000000e+00 
0.0000000e+00 0.0000000e+00 7.0000000e+00 
0.0000000e+00 0.0000000e+00 6.0000000e+00 
0.0000000e+00 0.0000000e+00 5.0000000e+00 
0.0000000e+00 1.0000000e+01 0.0000000e+00 
0.0000000e+00 9.0000000e+00 0.0000000e+00 
0.0000000e+00 8.0000000e+00 0.0000000e+00 
0.0000000e+00 0.0000000e+00 4.0000000e+00 
0.0000000e+00 7.0000000e+00 0.0000000e+00 
0.0000000e+00 6.0000000e+00 0.0000000e+00 
0.0000000e+00 5.0000000e+00 0.0000000e+00 
0.0000000e+00 0.0000000e+00 3.0000000e+00 
0.0000000e+00 4.0000000e+00 0.0000000e+00 
0.0000000e+00 0.0000000e+00 2.0000000e+00 
0.0000000e+00 3.0000000e+00 0.0000000e+00 
0.0000000e+00 2.0000000e+00 0.0000000e+00 
0.0000000e+00 0.0000000e+00 1.0000000e+00 
0.0000000e+00 1.0000000e+00 0.0000000e+00 
0.0000000e+00 0.0000000e+00 0.0000000e+00 

CELLS 3400 17000
4 3521 3486 3485 3520
4 3522 3489 3486 3521
4 3524 3492 3489 3522
4 3525 3494 3492 3524
4 3526 3496 3494 3525
4 3528 3499 3496 3526
4 3530 3502 3499 3528
4 3531 3504 3502 3530
4 3533 3507 3504 3531
4 3534 3509 3507 3533
4 3486 3452 3450 3485
4 3489 3454 3452 3486
4 3492 3457 3454 3489
4 3494 3459 3457 3492
4 3496 3461 3459 3494
4 3499 3464 3461 3496
4 3502 3467 3464 3499
4 3504 3469 3467 3502
4 3507 3472 3469 3504
4 3509 3474 3472 3507
4 3452 3418 3416 3450
4 3454 3420 3418 3452
4 3457 3423 3420 3454
4 3459 3425 3423 3457
4 3461 3427 3425 3459
4 3464 3430 3427 3461
4 3467 3433 3430 3464
4 3469 3435 3433 3467
4 3472 3438 3435 3469
4 3474 3440 3438 3472
4 3418 3383 3382 3416
4 3420 3385 3383 3418
4 3423 3388 3385 3420
4 3425 3390 3388 3423
4 3427 3392 3390 3425
4 3430 3395 3392 3427
4 3433 3398 3395 3430
4 3435 3400 3398 3433
4 3438 3403 3400 3435
4 3440 3406 3403 3438
4 3383 3349 3348 3382
4 3385 3350 3349 3383
4 3388 3353 3350 3385
4 3390 3355 3353 3388
4 3392 3357 3355 3390
4 3395 3360 3357 3392
4 3398 3363 3360 3395
4 3400 3365 3363 3398
4 3403 3368 3365 3400
4 3406 3372 3368 3403
4 3349 3314 3313 3348
4 3350 3316 3314 3349
4 3353 3318 3316 3350
4 3355 3320 3318 3353
4 3357 3322 3320 3355
4 3360 3325 3322 3357
4 3363 3328 3325 3360
4 3365 3330 3328 3363
4 3368 3333 3330 3365
4 3372 3337 3333 3368
4 3314 3280 3278 3313
4 3316 3281 3280 3314
4 3318 3284 3281 3316
4 3320 3286 3284 3318
4 3322 3287 3286 3320
4 3325 3290 3287 3322
4 3328 3293 3290 3325
4 3330 3295 3293 3328
4 3333 3298 3295 3330
4 3337 3302 3298 3333
4 3280 3245 3244 3278
4 3281 3246 3245 3280
4 3284 3249 3246 3281
4 3286 3251 3249 3284
4 3287 3252 3251 3286
4 3290 3255 3252 3287
4 3293 3258 3255 3290
4 3295 3260 3258 3293
4 3298 3263 3260 3295
4 3302 3268 3263 3298
4 3245 3210 3209 3244
4 3246 3212 3210 3245
4 3249 3214 3212 3246
4 3251 3216 3214 3249
4 3252 3218 3216 3251
4 3255 3220 3218 3252
4 3258 3223 3220 3255
4 3260 3225 3223 3258
4 3263 3228 3225 3260
4 3268 3233 3228 3263
4 3210 3175 3174 3209
4 3212 3177 3175 3210
4 3214 3179 3177 3212
4 3216 3181 3179 3214
4 3218 3183 3181 3216
4 3220 3186 3183 3218
4 3223 3188 3186 3220
4 3225 3190 3188 3223
4 3228 3193 3190 3225
4 3233 3198 3193 3228
4 3175 3141 3140 3174
4 3177 3142 3141 3175
4 3179 3145 3142 3177
4 3181 3146 3145 3179
4 3183 3148 3146 3181
4 3186 3151 3148 3183
4 3188 3154 3151 3186
4 3190 3155 3154 3188
4 3193 3158 3155 3190
4 3198 3164 3158 3193
4 3141 3106 3105 3140
4 3142 3107 3106 3141
4 3145 3110 3107 3142
4 3146 3111 3110 3145
4 3148 3113 3111 3146
4 3151 3116 3113 3148
4 3154 3119 3116 3151
4 3155 3121 3119 3154
4 3158 3124 3121 3155
4 3164 3129 3124 3158
4 3106 3071 3070 3105
4 3107 3073 3071 3106
4 3110 3075 3073 3107
4 3111 3077 3075 3110
4 3113 3078 3077 3111
4 3116 3081 3078 3113
4 3119 3084 3081 3116
4 3121 3086 3084 3119
4 3124 3090 3086 3121
4 3129 3094 3090 3124
4 3071 3036 3035 3070
4 3073 3038 3036 3071
4 3075 3040 3038 3073
4 3077 3042 3040 3075
4 3078 3043 3042 3077
4 3081 3046 3043 3078
4 3084 3049 3046 3081
4 3086 3051 3049 3084
4 3090 3055 3051 3086
4 3094 3059 3055 3090
4 3036 3002 3000 3035
4 3038 3003 3002 3036
4 3040 3005 3003 3038
4 3042 3007 3005 3040
4 3043 3009 3007 3042
4 3046 3011 3009 3043
4 3049 3014 3011 3046
4 3051 3016 3014 3049
4 3055 3021 3016 3051
4 3059 3024 3021 3055
4 3002 2967 2966 3000
4 3003 2968 2967 3002
4 3005 2970 2968 3003
4 3007 2972 2970 3005
4 3009 2974 2972 3007
4 3011 2976 2974 3009
4 3014 2979 2976 3011
4 3016 2981 2979 3014
4 3021 2986 2981 3016
4 3024 2990 2986 3021
4 2967 2932 2931 2966
4 2968 2933 2932 2967
4 2970 2936 2933 2968
4 2972 2937 2936 2970
4 2974 2939 2937 2972
4 2976 2942 2939 2974
4 2979 2944 2942 2976
4 2981 2946 2944 2979
4 2986 2952 2946 2981
4 2990 2955 2952 2986
4 2932 2897 2896 2931
4 2933 2898 2897 2932
4 2936 2901 2898 2933
4 2937 2902 2901 2936
4 2939 2904 2902 2937
4 2942 2907 2904 2939
4 2944 2909 2907 2942
4 2946 2911 2909 2944
4 2952 2917 2911 2946
4 2955 2920 2917 2952
4 2897 2862 2861 2896
4 2898 2864 2862 2897
4 2901 2866 2864 2898
4 2902 2867 2866 2901
4 2904 2869 2867 2902
4 2907 2872 2869 2904
4 2909 2875 2872 2907
4 2911 2876 2875 2909
4 2917 2882 2876 2911
4 2920 2885 2882 2917
4 2862 2827 2826 2861
4 2864 2829 2827 2862
4 2866 2831 2829 2864
4 2867 2833 2831 2866
4 2869 2834 2833 2867
4 2872 2837 2834 2869
4 2875 2840 2837 2872
4 2876 2841 2840 2875
4 2882 2847 2841 2876
4 2885 2850 2847 2882
4 2827 2793 2792 2826
4 2829 2794 2793 2827
4 2831 2796 2794 2829
4 2833 2798 2796 2831
4 2834 2799 2798 2833
4 2837 2802 2799 2834
4 2840 2805 2802 2837
4 2841 2807 2805 2840
4 2847 2813 2807 2841
4 2850 2816 2813 2847
4 2793 2758 2757 2792
4 2794 2759 2758 2793
4 2796 2761 2759 2794
4 2798 2763 2761 2796
4 2799 2764 2763 2798
4 2802 2767 2764 2799
4 2805 2770 2767 2802
4 2807 2773 2770 2805
4 2813 2778 2773 2807
4 2816 2781 2778 2813
4 2758 2723 2722 2757
4 2759 2724 2723 2758
4 2761 2727 2724 2759
4 2763 2728 2727 2761
4 2764 2730 2728 2763
4 2767 2732 2730 2764
4 2770 2735 2732 2767
4 2773 2739 2735 2770
4 2778 2743 2739 2773
4 2781 2746 2743 2778
4 2723 2688 2687 2722
4 2724 2689 2688 2723
4 2727 2692 2689 2724
4 2728 2693 2692 2727
4 2730 2695 2693 2728
4 2732 2697 2695 2730
4 2735 2700 2697 2732
4 2739 2704 2700 2735
4 2743 2708 2704 2739
4 2746 2711 2708 2743
4 2688 2653 2652 2687
4 2689 2654 2653 2688
4 2692 2657 2654 2689
4 2693 2658 2657 2692
4 2695 2660 2658 2693
4 2697 2662 2660 2695
4 2700 2665 2662 2697
4 2704 2669 2665 2700
4 2708 2674 2669 2704
4 2711 2676 2674 2708
4 2653 2618 2617 2652
4 2654 2620 2618 2653
4 2657 2622 2620 2654
4 2658 2623 2622 2657
4 2660 2625 2623 2658
4 2662 2628 2625 2660
4 2665 2630 2628 2662
4 2669 2635 2630 2665
4 2674 2639 2635 2669
4 2676 2641 2639 2674
4 2618 2584 2582 2617
4 2620 2585 2584 2618
4 2622 2587 2585 2620
4 2623 2589 2587 2622
4 2625 2590 2589 2623
4 2628 2593 2590 2625
4 2630 2595 2593 2628
4 2635 2600 2595 2630
4 2639 2604 2600 2635
4 2641 2606 2604 2639
4 2584 2549 2548 2582
4 2585 2550 2549 2584
4 2587 2552 2550 2585
4 2589 2554 2552 2587
4 2590 2555 2554 2589
4 2593 2558 2555 2590
4 2595 2561 2558 2593
4 2600 2565 2561 2595
4 2604 2569 2565 2600
4 2606 2574 2569 2604
4 2549 2514 2513 2548
4 2550 2515 2514 2549
4 2552 2517 2515 2550
4 2554 2519 2517 2552
4 2555 2520 2519 2554
4 2558 2523 2520 2555
4 2561 2527 2523 2558
4 2565 2531 2527 2561
4 2569 2534 2531 2565
4 2574 2540 2534 2569
4 2514 2479 2478 2513
4 2515 2480 2479 2514
4 2517 2482 2480 2515
4 2519 2484 2482 2517
4 2520 2485 2484 2519
4 2523 2488 2485 2520
4 2527 2492 2488 2523
4 2531 2496 2492 2527
4 2534 2499 2496 2531
4 2540 2506 2499 2534
4 2479 2444 2443 2478
4 2480 2445 2444 2479
4 2482 2448 2445 2480
4 2484 2449 2448 2482
4 2485 2451 2449 2484
4 2488 2453 2451 2485
4 2492 2458 2453 2488
4 2496 2461 2458 2492
4 2499 2465 2461 2496
4 2506 2471 2465 2499
4 2444 2409 2408 2443
4 2445 2410 2409 2444
4 2448 2413 2410 2445
4 2449 2414 2413 2448
4 2451 2416 2414 2449
4 2453 2418 2416 2451
4 2458 2423 2418 2453
4 2461 2426 2423 2458
4 2465 2431 2426 2461
4 2471 2437 2431 2465
4 2409 2374 2373 2408
4 2410 2377 2374 2409
4 2413 2378 2377 2410
4 2414 2379 2378 2413
4 2416 2381 2379 2414
4 2418 2383 2381 2416
4 2423 2389 2383 2418
4 2426 2391 2389 2423
4 2431 2398 2391 2426
4 2437 2402 2398 2431
4 2374 2340 2338 2373
4 2377 2341 2340 2374
4 2378 2343 2341 2377
4 2379 2344 2343 2378
4 2381 2346 2344 2379
4 2383 2348 2346 2381
4 2389 2354 2348 2383
4 2391 2357 2354 2389
4 2398 2363 2357 2391
4 2402 2368 2363 2398
4 2340 2305 2304 2338
4 2341 2306 2305 2340
4 2343 2308 2306 2341
4 2344 2309 2308 2343
4 2346 2311 2309 2344
4 2348 2314 2311 2346
4 2354 2319 2314 2348
4 2357 2322 2319 2354
4 2363 2329 2322 2357
4 2368 2334 2329 2363
4 2305 2270 2269 2304
4 2306 2271 2270 2305
4 2308 2273 2271 2306
4 2309 2275 2273 2308
4 2311 2276 2275 2309
4 2314 2280 2276 2311
4 2319 2284 2280 2314
4 2322 2288 2284 2319
4 2329 2295 2288 2322
4 2334 2299 2295 2329
4 2270 2235 2234 2269
4 2271 2236 2235 2270
4 2273 2238 2236 2271
4 2275 2240 2238 2273
4 2276 2241 2240 2275
4 2280 2246 2241 2276
4 2284 2250 2246 2280
4 2288 2254 2250 2284
4 2295 2261 2254 2288
4 2299 2265 2261 2295
4 2235 2200 2199 2234
4 2236 2201 2200 2235
4 2238 2203 2201 2236
4 2240 2205 2203 2238
4 2241 2206 2205 2240
4 2246 2211 2206 2241
4 2250 2215 2211 2246
4 2254 2220 2215 2250
4 2261 2227 2220 2254
4 2265 2230 2227 2261
4 2200 2165 2164 2199
4 2201 2166 2165 2200
4 2203 2169 2166 2201
4 2205 2170 2169 2203
4 2206 2171 2170 2205
4 2211 2176 2171 2206
4 2215 2180 2176 2211
4 2220 2187 2180 2215
4 2227 2192 2187 2220
4 2230 2195 2192 2227
4 2165 2130 2129 2164
4 2166 2131 2130 2165
4 2169 2134 2131 2166
4 2170 2135 2134 2169
4 2171 2137 2135 2170
4 2176 2142 2137 2171
4 2180 2146 2142 2176
4 2187 2152 2146 2180
4 2192 2157 2152 2187
4 2195 2161 2157 2192
4 2130 2095 2094 2129
4 2131 2096 2095 2130
4 2134 2099 2096 2131
4 2135 2100 2099 2134
4 2137 2103 2100 2135
4 2142 2107 2103 2137
4 2146 2114 2107 2142
4 2152 2118 2114 2146
4 2157 2123 2118 2152
4 2161 2126 2123 2157
4 2095 2060 2059 2094
4 2096 2062 2060 2095
4 2099 2064 2062 2096
4 2100 2065 2064 2099
4 2103 2068 2065 2100
4 2107 2072 2068 2103
4 2114 2079 2072 2107
4 2118 2083 2079 2114
4 2123 2088 2083 2118
4 2126 2091 2088 2123
4 2060 2026 2025 2059
4 2062 2027 2026 2060
4 2064 2029 2027 2062
4 2065 2030 2029 2064
4 2068 2034 2030 2065
4 2072 2038 2034 2068
4 2079 2045 2038 2072
4 2083 2049 2045 2079
4 2088 2053 2049 2083
4 2091 2057 2053 2088
4 2026 1991 1990 2025
4 2027 1992 1991 2026
4 2029 1994 1992 2027
4 2030 1995 1994 2029
4 2034 2000 1995 2030
4 2038 2006 2000 2034
4 2045 2011 2006 2038
4 2049 2014 2011 2045
4 2053 2020 2014 2049
4 2057 2023 2020 2053
4 1991 1956 1955 1990
4 1992 1957 1956 1991
4 1994 1959 1957 1992
4 1995 1961 1959 1994
4 2000 1965 1961 1995
4 2006 1971 1965 2000
4 2011 1976 1971 2006
4 2014 1981 1976 2011
4 2020 1985 1981 2014
4 2023 1988 1985 2020
4 1956 1921 1920 1955
4 1957 1922 1921 1956
4 1959 1924 1922 1957
4 1961 1927 1924 1959
4 1965 1931 1927 1961
4 1971 1937 1931 1965
4 1976 1941 1937 1971
4 1981 1946 1941 1976
4 1985 1950 1946 1981
4 1988 1953 1950 1985
4 1921 1886 1885 1920
4 1922 1887 1886 1921
4 1924 1889 1887 1922
4 1927 1893 1889 1924
4 1931 1898 1893 1927
4 1937 1903 1898 1931
4 1941 1908 1903 1937
4 1946 1911 1908 1941
4 1950 1915 1911 1946
4 1953 1918 1915 1950
4 1886 1851 1850 1885
4 1887 1852 1851 1886
4 1889 1855 1852 1887
4 1893 1859 1855 1889
4 1898 1863 1859 1893
4 1903 1869 1863 1898
4 1908 1873 1869 1903
4 1911 1876 1873 1908
4 1915 1881 1876 1911
4 1918 1884 1881 1915
4 1851 1816 1815 1850
4 1852 1818 1816 1851
4 1855 1821 1818 1852
4 1859 1826 1821 1855
4 1863 1830 1826 1859
4 1869 1834 1830 1863
4 1873 1839 1834 1869
4 1876 1842 1839 1873
4 1881 1846 1842 1876
4 1884 1849 1846 1881
4 1816 1781 1779 1815
4 1818 1783 1781 1816
4 1821 1789 1783 1818
4 1826 1792 1789 1821
4 1830 1796 1792 1826
4 1834 1800 1796 1830
4 1839 1804 1800 1834
4 1842 1807 1804 1839
4 1846 1811 1807 1842
4 1849 1814 1811 1846
4 1781 1745 1744 1779
4 1783 1750 1745 1781
4 1789 1755 1750 1783
4 1792 1758 1755 1789
4 1796 1761 1758 1792
4 1800 1765 1761 1796
4 1804 1769 1765 1800
4 1807 1772 1769 1804
4 1811 1776 1772 1807
4 1814 1780 1776 1811
4 1745 1712 1709 1744
4 1750 1716 1712 1745
4 1755 1720 1716 1750
4 1758 1723 1720 1755
4 1761 1726 1723 1758
4 1765 1730 1726 1761
4 1769 1734 1730 1765
4 1772 1737 1734 1769
4 1776 1741 1737 1772
4 1780 1746 1741 1776
4 1712 1680 1678 1709
4 1716 1683 1680 1712
4 1720 1687 1683 1716
4 1723 1690 1687 1720
4 1726 1693 1690 1723
4 1730 1697 1693 1726
4 1734 1701 1697 1730
4 1737 1704 1701 1734
4 1741 1708 1704 1737
4 1746 1718 1708 1741
4 1680 1645 1644 1678
4 1683 1648 1645 1680
4 1687 1653 1648 1683
4 1690 1655 1653 1687
4 1693 1658 1655 1690
4 1697 1662 1658 1693
4 1701 1666 1662 1697
4 1704 1669 1666 1701
4 1708 1673 1669 1704
4 1718 1685 1673 1708
4 1645 1612 1611 1644
4 1648 1613 1612 1645
4 1653 1617 1613 1648
4 1655 1621 1617 1653
4 1658 1624 1621 1655
4 1662 1627 1624 1658
4 1666 1631 1627 1662
4 1669 1634 1631 1666
4 1673 1638 1634 1669
4 1685 1652 1638 1673
4 1612 1578 1576 1611
4 1613 1580 1578 1612
4 1617 1582 1580 1613
4 1621 1586 1582 1617
4 1624 1589 1586 1621
4 1627 1593 1589 1624
4 1631 1597 1593 1627
4 1634 1599 1597 1631
4 1638 1605 1599 1634
4 1652 1618 1605 1638
4 1578 1544 1543 1576
4 1580 1545 1544 1578
4 1582 1549 1545 1580
4 1586 1553 1549 1582
4 1589 1554 1553 1586
4 1593 1558 1554 1589
4 1597 1562 1558 1593
4 1599 1565 1562 1597
4 1605 1573 1565 1599
4 1618 1585 1573 1605
4 1544 1510 1508 1543
4 1545 1511 1510 1544
4 1549 1514 1511 1545
4 1553 1517 1514 1549
4 1554 1521 1517 1553
4 1558 1523 1521 1554
4 1562 1527 1523 1558
4 1565 1530 1527 1562
4 1573 1541 1530 1565
4 1585 1550 1541 1573
4 1510 1475 1473 1508
4 1511 1477 1475 1510
4 1514 1480 1477 1511
4 1517 1482 1480 1514
4 1521 1486 1482 1517
4 1523 1488 1486 1521
4 1527 1492 1488 1523
4 1530 1498 1492 1527
4 1541 1506 1498 1530
4 1550 1518 1506 1541
4 1475 1440 1438 1473
4 1477 1442 1440 1475
4 1480 1445 1442 1477
4 1482 1447 1445 1480
4 1486 1451 1447 1482
4 1488 1455 1451 1486
4 1492 1458 1455 1488
4 1498 1464 1458 1492
4 1506 1474 1464 1498
4 1518 1483 1474 1506
4 1440 1406 1405 1438
4 1442 1408 1406 1440
4 1445 1411 1408 1442
4 1447 1413 1411 1445
4 1451 1416 1413 1447
4 1455 1420 1416 1451
4 1458 1426 1420 1455
4 1464 1431 1426 1458
4 1474 1441 1431 1464
4 1483 1449 1441 1474
4 1406 1371 1370 1405
4 1408 1372 1371 1406
4 1411 1376 1372 1408
4 1413 1378 1376 1411
4 1416 1381 1378 1413
4 1420 1385 1381 1416
4 1426 1392 1385 1420
4 1431 1398 1392 1426
4 1441 1407 1398 1431
4 1449 1415 1407 1441
4 1371 1336 1335 1370
4 1372 1338 1336 1371
4 1376 1342 1338 1372
4 1378 1344 1342 1376
4 1381 1346 1344 1378
4 1385 1351 1346 1381
4 1392 1358 1351 1385
4 1398 1365 1358 1392
4 1407 1375 1365 1398
4 1415 1383 1375 1407
4 1336 1300 1299 1335
4 1338 1304 1300 1336
4 1342 1306 1304 1338
4 1344 1309 1306 1342
4 1346 1311 1309 1344
4 1351 1319 1311 1346
4 1358 1324 1319 1351
4 1365 1331 1324 1358
4 1375 1341 1331 1365
4 1383 1348 1341 1375
4 1300 1267 1266 1299
4 1304 1268 1267 1300
4 1306 1271 1268 1304
4 1309 1275 1271 1306
4 1311 1280 1275 1309
4 1319 1285 1280 1311
4 1324 1291 1285 1319
4 1331 1298 1291 1324
4 1341 1307 1298 1331
4 1348 1314 1307 1341
4 1267 1232 1231 1266
4 1268 1233 1232 1267
4 1271 1237 1233 1268
4 1275 1240 1237 1271
4 1280 1247 1240 1275
4 1285 1251 1247 1280
4 1291 1258 1251 1285
4 1298 1263 1258 1291
4 1307 1273 1263 1298
4 1314 1283 1273 1307
4 1232 1197 1196 1231
4 1233 1198 1197 1232
4 1237 1203 1198 1233
4 1240 1207 1203 1237
4 1247 1213 1207 1240
4 1251 1217 1213 1247
4 1258 1224 1217 1251
4 1263 1229 1224 1258
4 1273 1239 1229 1263
4 1283 1250 1239 1273
4 1197 1163 1160 1196
4 1198 1164 1163 1197
4 1203 1170 1164 1198
4 1207 1173 1170 1203
4 1213 1179 1173 1207
4 1217 1183 1179 1213
4 1224 1190 1183 1217
4 1229 1195 1190 1224
4 1239 1208 1195 1229
4 1250 1215 1208 1239
4 1163 1129 1127 1160
4 1164 1133 1129 1163
4 1170 1136 1133 1164
4 1173 1141 1136 1170
4 1179 1144 1141 1173
4 1183 1151 1144 1179
4 1190 1158 1151 1183
4 1195 1162 1158 1190
4 1208 1176 1162 1195
4 1215 1184 1176 1208
4 1129 1095 1094 1127
4 1133 1098 1095 1129
4 1136 1101 1098 1133
4 1141 1106 1101 1136
4 1144 1109 1106 1141
4 1151 1116 1109 1144
4 1158 1123 1116 1151
4 1162 1130 1123 1158
4 1176 1142 1130 1162
4 1184 1152 1142 1176
4 1095 1062 1061 1094
4 1098 1064 1062 1095
4 1101 1068 1064 1098
4 1106 1071 1068 1101
4 1109 1076 1071 1106
4 1116 1082 1076 1109
4 1123 1088 1082 1116
4 1130 1100 1088 1123
4 1142 1108 1100 1130
4 1152 1118 1108 1142
4 1062 1028 1027 1061
4 1064 1031 1028 1062
4 1068 1033 1031 1064
4 1071 1036 1033 1068
4 1076 1043 1036 1071
4 1082 1048 1043 1076
4 1088 1058 1048 1082
4 1100 1067 1058 1088
4 1108 1075 1067 1100
4 1118 1085 1075 1108
4 1028 995 993 1027
4 1031 996 995 1028
4 1033 999 996 1031
4 1036 1003 999 1033
4 1043 1010 1003 1036
4 1048 1015 1010 1043
4 1058 1024 1015 1048
4 1067 1034 1024 1058
4 1075 1045 1034 1067
4 1085 1053 1045 1075
4 995 960 959 993
4 996 961 960 995
4 999 965 961 996
4 1003 969 965 999
4 1010 976 969 1003
4 1015 983 976 1010
4 1024 991 983 1015
4 1034 1001 991 1024
4 1045 1012 1001 1034
4 1053 1022 1012 1045
4 960 925 923 959
4 961 928 925 960
4 965 931 928 961
4 969 936 931 965
4 976 945 936 969
4 983 951 945 976
4 991 957 951 983
4 1001 968 957 991
4 1012 980 968 1001
4 1022 990 980 1012
4 925 888 887 923
4 928 893 888 925
4 931 899 893 928
4 936 903 899 931
4 945 910 903 936
4 951 917 910 945
4 957 924 917 951
4 968 935 924 957
4 980 948 935 968
4 990 958 948 980
4 888 857 853 887
4 893 860 857 888
4 899 867 860 893
4 903 872 867 899
4 910 876 872 903
4 917 883 876 910
4 924 890 883 917
4 935 905 890 924
4 948 915 905 935
4 958 926 915 948
4 857 826 825 853
4 860 827 826 857
4 867 833 827 860
4 872 839 833 867
4 876 843 839 872
4 883 850 843 876
4 890 861 850 883
4 905 874 861 890
4 915 884 874 905
4 926 897 884 915
4 826 793 790 825
4 827 795 793 826
4 833 801 795 827
4 839 804 801 833
4 843 810 804 839
4 850 815 810 843
4 861 832 815 850
4 874 842 832 861
4 884 851 842 874
4 897 868 851 884
4 793 759 758 790
4 795 762 759 793
4 801 765 762 795
4 804 771 765 801
4 810 775 771 804
4 815 786 775 810
4 832 799 786 815
4 842 808 799 832
4 851 819 808 842
4 868 838 819 851
4 759 725 723 758
4 762 727 725 759
4 765 732 727 762
4 771 737 732 765
4 775 744 737 771
4 786 754 744 775
4 799 768 754 786
4 808 776 768 799
4 819 792 776 808
4 838 806 792 819
4 725 690 687 723
4 727 693 690 725
4 732 699 693 727
4 737 706 699 732
4 744 713 706 737
4 754 722 713 744
4 768 736 722 754
4 776 747 736 768
4 792 763 747 776
4 806 773 763 792
4 690 658 654 687
4 693 662 658 690
4 699 668 662 693
4 706 675 668 699
4 713 683 675 706
4 722 691 683 713
4 736 705 691 722
4 747 718 705 736
4 763 733 718 747
4 773 748 733 763
4 658 626 624 654
4 662 627 626 658
4 668 633 627 662
4 675 641 633 668
4 683 648 641 675
4 691 661 648 683
4 705 673 661 691
4 718 685 673 705
4 733 704 685 718
4 748 720 704 733
4 626 592 590 624
4 627 597 592 626
4 633 603 597 627
4 641 607 603 633
4 648 620 607 641
4 661 630 620 648
4 673 643 630 661
4 685 655 643 673
4 704 676 655 685
4 720 689 676 704
4 592 560 558 590
4 597 564 560 592
4 603 571 564 597
4 607 578 571 603
4 620 586 578 607
4 630 600 586 620
4 643 613 600 630
4 655 628 613 643
4 676 647 628 655
4 689 665 647 676
4 560 529 524 558
4 564 531 529 560
4 571 538 531 564
4 578 545 538 571
4 586 555 545 578
4 600 570 555 586
4 613 584 570 600
4 628 602 584 613
4 647 619 602 628
4 665 637 619 647
4 529 493 490 524
4 531 500 493 529
4 538 505 500 531
4 545 512 505 538
4 555 525 512 545
4 570 540 525 555
4 584 552 540 570
4 602 572 552 584
4 619 591 572 602
4 637 610 591 619
4 493 459 456 490
4 500 463 459 493
4 505 475 463 500
4 512 484 475 505
4 525 496 484 512
4 540 509 496 525
4 552 530 509 540
4 572 547 530 552
4 591 567 547 572
4 610 588 567 591
4 459 427 422 456
4 463 432 427 459
4 475 442 432 463
4 484 452 442 475
4 496 461 452 484
4 509 481 461 496
4 530 501 481 509
4 547 517 501 530
4 567 543 517 547
4 588 563 543 567
4 427 390 386 422
4 432 398 390 427
4 442 407 398 432
4 452 416 407 442
4 461 435 416 452
4 481 454 435 461
4 501 476 454 481
4 517 495 476 501
4 543 514 495 517
4 563 542 514 543
4 390 357 350 386
4 398 361 357 390
4 407 370 361 398
4 416 384 370 407
4 435 404 384 416
4 454 425 404 435
4 476 449 425 454
4 495 468 449 476
4 514 494 468 495
4 542 516 494 514
4 357 326 320 350
4 361 335 326 357
4 370 341 335 361
4 384 355 341 370
4 404 376 355 384
4 425 394 376 404
4 449 419 394 425
4 468 448 419 449
4 494 474 448 468
4 516 502 474 494
4 326 301 299 320
4 335 305 301 326
4 341 312 305 335
4 355 330 312 341
4 376 344 330 355
4 394 366 344 376
4 419 397 366 394
4 448 424 397 419
4 474 453 424 448
4 502 480 453 474
4 301 276 269 299
4 305 285 276 301
4 312 291 285 305
4 330 308 291 312
4 344 325 308 330
4 366 345 325 344
4 397 374 345 366
4 424 403 374 397
4 453 434 403 424
4 480 462 434 453
4 276 258 255 269
4 285 261 258 276
4 291 273 261 285
4 308 288 273 291
4 325 309 288 308
4 345 332 309 325
4 374 356 332 345
4 403 383 356 374
4 434 414 383 403
4 462 451 414 434
4 258 245 242 255
4 261 250 245 258
4 273 260 250 261
4 288 274 260 273
4 309 293 274 288
4 332 314 293 309
4 356 342 314 332
4 383 372 342 356
4 414 408 372 383
4 451 438 408 414
4 245 233 227 242
4 250 238 233 245
4 260 251 238 250
4 274 263 251 260
4 293 284 263 274
4 314 306 284 293
4 342 333 306 314
4 372 362 333 342
4 408 395 362 372
4 438 431 395 408
4 233 224 220 227
4 238 234 224 233
4 251 246 234 238
4 263 259 246 251
4 284 278 259 263
4 306 302 278 284
4 333 328 302 306
4 362 358 328 333
4 395 389 358 362
4 431 426 389 395
4 224 219 216 220
4 234 226 219 224
4 246 241 226 234
4 259 254 241 246
4 278 268 254 259
4 302 298 268 278
4 328 319 298 302
4 358 349 319 328
4 389 385 349 358
4 426 421 385 389
4 3532 3506 3509 3534
4 3529 3501 3506 3532
4 3527 3497 3501 3529
4 3523 3490 3497 3527
4 3519 3484 3490 3523
4 3518 3483 3484 3519
4 3517 3482 3483 3518
4 3506 3471 3474 3509
4 3501 3466 3471 3506
4 3497 3462 3466 3501
4 3490 3455 3462 3497
4 3484 3449 3455 3490
4 3483 3448 3449 3484
4 3482 3447 3448 3483
4 3471 3436 3440 3474
4 3466 3431 3436 3471
4 3462 3428 3431 3466
4 3455 3421 3428 3462
4 3449 3414 3421 3455
4 3448 3413 3414 3449
4 3447 3412 3413 3448
4 3436 3401 3406 3440
4 3431 3397 3401 3436
4 3428 3393 3397 3431
4 3421 3386 3393 3428
4 3414 3379 3386 3421
4 3413 3378 3379 3414
4 3412 3377 3378 3413
4 3401 3366 3372 3406
4 3397 3362 3366 3401
4 3393 3358 3362 3397
4 3386 3351 3358 3393
4 3379 3344 3351 3386
4 3378 3343 3344 3379
4 3377 3342 3343 3378
4 3366 3331 3337 3372
4 3362 3327 3331 3366
4 3358 3323 3327 3362
4 3351 3317 3323 3358
4 3344 3309 3317 3351
4 3343 3308 3309 3344
4 3342 3307 3308 3343
4 3331 3297 3302 3337
4 3327 3292 3297 3331
4 3323 3288 3292 3327
4 3317 3282 3288 3323
4 3309 3274 3282 3317
4 3308 3273 3274 3309
4 3307 3272 3273 3308
4 3297 3262 3268 3302
4 3292 3257 3262 3297
4 3288 3253 3257 3292
4 3282 3247 3253 3288
4 3274 3239 3247 3282
4 3273 3238 3239 3274
4 3272 3237 3238 3273
4 3262 3227 3233 3268
4 3257 3222 3227 3262
4 3253 3219 3222 3257
4 3247 3213 3219 3253
4 3239 3204 3213 3247
4 3238 3203 3204 3239
4 3237 3202 3203 3238
4 3227 3192 3198 3233
4 3222 3187 3192 3227
4 3219 3184 3187 3222
4 3213 3178 3184 3219
4 3204 3170 3178 3213
4 3203 3168 3170 3204
4 3202 3167 3168 3203
4 3192 3157 3164 3198
4 3187 3153 3157 3192
4 3184 3149 3153 3187
4 3178 3143 3149 3184
4 3170 3136 3143 3178
4 3168 3133 3136 3170
4 3167 3132 3133 3168
4 3157 3122 3129 3164
4 3153 3118 3122 3157
4 3149 3114 3118 3153
4 3143 3108 3114 3149
4 3136 3101 3108 3143
4 3133 3098 3101 3136
4 3132 3097 3098 3133
4 3122 3087 3094 3129
4 3118 3083 3087 3122
4 3114 3079 3083 3118
4 3108 3074 3079 3114
4 3101 3067 3074 3108
4 3098 3063 3067 3101
4 3097 3062 3063 3098
4 3087 3052 3059 3094
4 3083 3048 3052 3087
4 3079 3044 3048 3083
4 3074 3039 3044 3079
4 3067 3032 3039 3074
4 3063 3028 3032 3067
4 3062 3027 3028 3063
4 3052 3017 3024 3059
4 3048 3013 3017 3052
4 3044 3010 3013 3048
4 3039 3004 3010 3044
4 3032 2998 3004 3039
4 3028 2993 2998 3032
4 3027 2992 2993 3028
4 3017 2983 2990 3024
4 3013 2978 2983 3017
4 3010 2975 2978 3013
4 3004 2969 2975 3010
4 2998 2963 2969 3004
4 2993 2958 2963 2998
4 2992 2957 2958 2993
4 2983 2949 2955 2990
4 2978 2943 2949 2983
4 2975 2940 2943 2978
4 2969 2934 2940 2975
4 2963 2928 2934 2969
4 2958 2923 2928 2963
4 2957 2922 2923 2958
4 2949 2914 2920 2955
4 2943 2908 2914 2949
4 2940 2905 2908 2943
4 2934 2899 2905 2940
4 2928 2893 2899 2934
4 2923 2888 2893 2928
4 2922 2887 2888 2923
4 2914 2880 2885 2920
4 2908 2873 2880 2914
4 2905 2870 2873 2908
4 2899 2865 2870 2905
4 2893 2859 2865 2899
4 2888 2854 2859 2893
4 2887 2852 2854 2888
4 2880 2845 2850 2885
4 2873 2839 2845 2880
4 2870 2835 2839 2873
4 2865 2830 2835 2870
4 2859 2824 2830 2865
4 2854 2820 2824 2859
4 2852 2817 2820 2854
4 2845 2811 2816 2850
4 2839 2804 2811 2845
4 2835 2800 2804 2839
4 2830 2795 2800 2835
4 2824 2789 2795 2830
4 2820 2786 2789 2824
4 2817 2782 2786 2820
4 2811 2776 2781 2816
4 2804 2769 2776 2811
4 2800 2765 2769 2804
4 2795 2760 2765 2800
4 2789 2754 2760 2795
4 2786 2751 2754 2789
4 2782 2747 2751 2786
4 2776 2741 2746 2781
4 2769 2734 2741 2776
4 2765 2731 2734 2769
4 2760 2725 2731 2765
4 2754 2720 2725 2760
4 2751 2716 2720 2754
4 2747 2712 2716 2751
4 2741 2706 2711 2746
4 2734 2699 2706 2741
4 2731 2696 2699 2734
4 2725 2690 2696 2731
4 2720 2685 2690 2725
4 2716 2682 2685 2720
4 2712 2677 2682 2716
4 2706 2672 2676 2711
4 2699 2664 2672 2706
4 2696 2661 2664 2699
4 2690 2655 2661 2696
4 2685 2650 2655 2690
4 2682 2647 2650 2685
4 2677 2642 2647 2682
4 2672 2637 2641 2676
4 2664 2629 2637 2672
4 2661 2626 2629 2664
4 2655 2621 2626 2661
4 2650 2615 2621 2655
4 2647 2612 2615 2650
4 2642 2607 2612 2647
4 2637 2602 2606 2641
4 2629 2594 2602 2637
4 2626 2591 2594 2629
4 2621 2586 2591 2626
4 2615 2580 2586 2621
4 2612 2578 2580 2615
4 2607 2573 2578 2612
4 2602 2567 2574 2606
4 2594 2559 2567 2602
4 2591 2556 2559 2594
4 2586 2551 2556 2591
4 2580 2545 2551 2586
4 2578 2543 2545 2580
4 2573 2538 2543 2578
4 2567 2533 2540 2574
4 2559 2525 2533 2567
4 2556 2521 2525 2559
4 2551 2516 2521 2556
4 2545 2511 2516 2551
4 2543 2508 2511 2545
4 2538 2504 2508 2543
4 2533 2498 2506 2540
4 2525 2491 2498 2533
4 2521 2486 2491 2525
4 2516 2481 2486 2521
4 2511 2476 2481 2516
4 2508 2473 2476 2511
4 2504 2469 2473 2508
4 2498 2463 2471 2506
4 2491 2457 2463 2498
4 2486 2452 2457 2491
4 2481 2446 2452 2486
4 2476 2441 2446 2481
4 2473 2439 2441 2476
4 2469 2435 2439 2473
4 2463 2428 2437 2471
4 2457 2422 2428 2463
4 2452 2417 2422 2457
4 2446 2411 2417 2452
4 2441 2406 2411 2446
4 2439 2404 2406 2441
4 2435 2400 2404 2439
4 2428 2393 2402 2437
4 2422 2387 2393 2428
4 2417 2382 2387 2422
4 2411 2376 2382 2417
4 2406 2371 2376 2411
4 2404 2369 2371 2406
4 2400 2365 2369 2404
4 2393 2359 2368 2402
4 2387 2353 2359 2393
4 2382 2347 2353 2387
4 2376 2342 2347 2382
4 2371 2336 2342 2376
4 2369 2333 2336 2371
4 2365 2330 2333 2369
4 2359 2327 2334 2368
4 2353 2318 2327 2359
4 2347 2312 2318 2353
4 2342 2307 2312 2347
4 2336 2302 2307 2342
4 2333 2298 2302 2336
4 2330 2296 2298 2333
4 2327 2292 2299 2334
4 2318 2283 2292 2327
4 2312 2277 2283 2318
4 2307 2272 2277 2312
4 2302 2267 2272 2307
4 2298 2263 2267 2302
4 2296 2260 2263 2298
4 2292 2258 2265 2299
4 2283 2249 2258 2292
4 2277 2242 2249 2283
4 2272 2237 2242 2277
4 2267 2232 2237 2272
4 2263 2229 2232 2267
4 2260 2225 2229 2263
4 2258 2224 2230 2265
4 2249 2214 2224 2258
4 2242 2207 2214 2249
4 2237 2202 2207 2242
4 2232 2197 2202 2237
4 2229 2194 2197 2232
4 2225 2190 2194 2229
4 2224 2189 2195 2230
4 2214 2179 2189 2224
4 2207 2172 2179 2214
4 2202 2167 2172 2207
4 2197 2162 2167 2202
4 2194 2159 2162 2197
4 2190 2156 2159 2194
4 2189 2155 2161 2195
4 2179 2145 2155 2189
4 2172 2138 2145 2179
4 2167 2132 2138 2172
4 2162 2127 2132 2167
4 2159 2124 2127 2162
4 2156 2120 2124 2159
4 2155 2121 2126 2161
4 2145 2111 2121 2155
4 2138 2104 2111 2145
4 2132 2097 2104 2138
4 2127 2092 2097 2132
4 2124 2089 2092 2127
4 2120 2085 2089 2124
4 2121 2086 2091 2126
4 2111 2078 2086 2121
4 2104 2069 2078 2111
4 2097 2063 2069 2104
4 2092 2056 2063 2097
4 2089 2054 2056 2092
4 2085 2050 2054 2089
4 2086 2052 2057 2091
4 2078 2044 2052 2086
4 2069 2035 2044 2078
4 2063 2028 2035 2069
4 2056 2022 2028 2063
4 2054 2018 2022 2056
4 2050 2015 2018 2054
4 2052 2017 2023 2057
4 2044 2009 2017 2052
4 2035 1999 2009 2044
4 2028 1993 1999 2035
4 2022 1987 1993 2028
4 2018 1984 1987 2022
4 2015 1980 1984 2018
4 2017 1982 1988 2023
4 2009 1975 1982 2017
4 1999 1966 1975 2009
4 1993 1958 1966 1999
4 1987 1952 1958 1993
4 1984 1949 1952 1987
4 1980 1945 1949 1984
4 1982 1947 1953 1988
4 1975 1940 1947 1982
4 1966 1932 1940 1975
4 1958 1923 1932 1966
4 1952 1917 1923 1958
4 1949 1914 1917 1952
4 1945 1910 1914 1949
4 1947 1913 1918 1953
4 1940 1907 1913 1947
4 1932 1899 1907 1940
4 1923 1888 1899 1932
4 1917 1882 1888 1923
4 1914 1878 1882 1917
4 1910 1875 1878 1914
4 1913 1879 1884 1918
4 1907 1872 1879 1913
4 1899 1864 1872 1907
4 1888 1853 1864 1899
4 1882 1847 1853 1888
4 1878 1843 1847 1882
4 1875 1840 1843 1878
4 1879 1844 1849 1884
4 1872 1837 1844 1879
4 1864 1831 1837 1872
4 1853 1817 1831 1864
4 1847 1812 1817 1853
4 1843 1808 1812 1847
4 1840 1805 1808 1843
4 1844 1810 1814 1849
4 1837 1803 1810 1844
4 1831 1797 1803 1837
4 1817 1782 1797 1831
4 1812 1777 1782 1817
4 1808 1773 1777 1812
4 1805 1770 1773 1808
4 1810 1775 1780 1814
4 1803 1768 1775 1810
4 1797 1762 1768 1803
4 1782 1751 1762 1797
4 1777 1743 1751 1782
4 1773 1739 1743 1777
4 1770 1736 1739 1773
4 1775 1740 1746 1780
4 1768 1733 1740 1775
4 1762 1727 1733 1768
4 1751 1715 1727 1762
4 1743 1707 1715 1751
4 1739 1703 1707 1743
4 1736 1699 1703 1739
4 1740 1705 1718 1746
4 1733 1700 1705 1740
4 1727 1694 1700 1733
4 1715 1682 1694 1727
4 1707 1672 1682 1715
4 1703 1668 1672 1707
4 1699 1664 1668 1703
4 1705 1671 1685 1718
4 1700 1665 1671 1705
4 1694 1659 1665 1700
4 1682 1649 1659 1694
4 1672 1637 1649 1682
4 1668 1633 1637 1672
4 1664 1629 1633 1668
4 1671 1636 1652 1685
4 1665 1630 1636 1671
4 1659 1625 1630 1665
4 1649 1614 1625 1659
4 1637 1602 1614 1649
4 1633 1598 1602 1637
4 1629 1594 1598 1633
4 1636 1601 1618 1652
4 1630 1595 1601 1636
4 1625 1590 1595 1630
4 1614 1581 1590 1625
4 1602 1568 1581 1614
4 1598 1563 1568 1602
4 1594 1559 1563 1598
4 1601 1569 1585 1618
4 1595 1561 1569 1601
4 1590 1555 1561 1595
4 1581 1546 1555 1590
4 1568 1534 1546 1581
4 1563 1528 1534 1568
4 1559 1524 1528 1563
4 1569 1535 1550 1585
4 1561 1526 1535 1569
4 1555 1522 1526 1561
4 1546 1512 1522 1555
4 1534 1500 1512 1546
4 1528 1493 1500 1534
4 1524 1489 1493 1528
4 1535 1503 1518 1550
4 1526 1491 1503 1535
4 1522 1487 1491 1526
4 1512 1478 1487 1522
4 1500 1465 1478 1512
4 1493 1457 1465 1500
4 1489 1454 1457 1493
4 1503 1470 1483 1518
4 1491 1456 1470 1503
4 1487 1452 1456 1491
4 1478 1444 1452 1487
4 1465 1432 1444 1478
4 1457 1423 1432 1465
4 1454 1419 1423 1457
4 1470 1437 1449 1483
4 1456 1424 1437 1470
4 1452 1417 1424 1456
4 1444 1409 1417 1452
4 1432 1397 1409 1444
4 1423 1389 1397 1432
4 1419 1384 1389 1423
4 1437 1402 1415 1449
4 1424 1391 1402 1437
4 1417 1382 1391 1424
4 1409 1373 1382 1417
4 1397 1364 1373 1409
4 1389 1355 1364 1397
4 1384 1349 1355 1389
4 1402 1369 1383 1415
4 1391 1357 1369 1402
4 1382 1347 1357 1391
4 1373 1339 1347 1382
4 1364 1329 1339 1373
4 1355 1321 1329 1364
4 1349 1313 1321 1355
4 1369 1334 1348 1383
4 1357 1323 1334 1369
4 1347 1312 1323 1357
4 1339 1305 1312 1347
4 1329 1294 1305 1339
4 1321 1287 1294 1329
4 1313 1278 1287 1321
4 1334 1303 1314 1348
4 1323 1290 1303 1334
4 1312 1279 1290 1323
4 1305 1269 1279 1312
4 1294 1261 1269 1305
4 1287 1252 1261 1294
4 1278 1244 1252 1287
4 1303 1270 1283 1314
4 1290 1256 1270 1303
4 1279 1245 1256 1290
4 1269 1234 1245 1279
4 1261 1226 1234 1269
4 1252 1216 1226 1261
4 1244 1209 1216 1252
4 1270 1235 1250 1283
4 1256 1223 1235 1270
4 1245 1212 1223 1256
4 1234 1199 1212 1245
4 1226 1191 1199 1234
4 1216 1181 1191 1226
4 1209 1175 1181 1216
4 1235 1202 1215 1250
4 1223 1189 1202 1235
4 1212 1178 1189 1223
4 1199 1165 1178 1212
4 1191 1156 1165 1199
4 1181 1146 1156 1191
4 1175 1140 1146 1181
4 1202 1171 1184 1215
4 1189 1155 1171 1202
4 1178 1145 1155 1189
4 1165 1134 1145 1178
4 1156 1121 1134 1165
4 1146 1113 1121 1156
4 1140 1104 1113 1146
4 1171 1137 1152 1184
4 1155 1122 1137 1171
4 1145 1110 1122 1155
4 1134 1099 1110 1145
4 1121 1086 1099 1134
4 1113 1079 1086 1121
4 1104 1069 1079 1113
4 1137 1105 1118 1152
4 1122 1087 1105 1137
4 1110 1077 1087 1122
4 1099 1065 1077 1110
4 1086 1050 1065 1099
4 1079 1042 1050 1086
4 1069 1035 1042 1079
4 1105 1072 1085 1118
4 1087 1056 1072 1105
4 1077 1044 1056 1087
4 1065 1030 1044 1077
4 1050 1019 1030 1065
4 1042 1007 1019 1050
4 1035 998 1007 1042
4 1072 1038 1053 1085
4 1056 1023 1038 1072
4 1044 1011 1023 1056
4 1030 997 1011 1044
4 1019 986 997 1030
4 1007 973 986 1019
4 998 964 973 1007
4 1038 1006 1022 1053
4 1023 988 1006 1038
4 1011 975 988 1023
4 997 962 975 1011
4 986 952 962 997
4 973 938 952 986
4 964 927 938 973
4 1006 974 990 1022
4 988 956 974 1006
4 975 944 956 988
4 962 929 944 975
4 952 916 929 962
4 938 906 916 952
4 927 891 906 938
4 974 942 958 990
4 956 921 942 974
4 944 911 921 956
4 929 894 911 944
4 916 881 894 929
4 906 870 881 916
4 891 854 870 906
4 942 912 926 958
4 921 889 912 942
4 911 878 889 921
4 894 862 878 911
4 881 846 862 894
4 870 837 846 881
4 854 822 837 870
4 912 879 897 926
4 889 858 879 912
4 878 844 858 889
4 862 828 844 878
4 846 812 828 862
4 837 802 812 846
4 822 787 802 837
4 879 847 868 897
4 858 830 847 879
4 844 811 830 858
4 828 797 811 844
4 812 778 797 828
4 802 766 778 812
4 787 752 766 802
4 847 814 838 868
4 830 798 814 847
4 811 777 798 830
4 797 760 777 811
4 778 743 760 797
4 766 729 743 778
4 752 717 729 766
4 814 785 806 838
4 798 767 785 814
4 777 745 767 798
4 760 728 745 777
4 743 711 728 760
4 729 696 711 743
4 717 682 696 729
4 785 757 773 806
4 767 735 757 785
4 745 714 735 767
4 728 694 714 745
4 711 679 694 728
4 696 659 679 711
4 682 646 659 696
4 757 726 748 773
4 735 701 726 757
4 714 684 701 735
4 694 663 684 714
4 679 644 663 694
4 659 625 644 679
4 646 608 625 659
4 726 695 720 748
4 701 672 695 726
4 684 650 672 701
4 663 629 650 684
4 644 606 629 663
4 625 589 606 644
4 608 574 589 625
4 695 667 689 720
4 672 642 667 695
4 650 618 642 672
4 629 594 618 650
4 606 577 594 629
4 589 553 577 606
4 574 539 553 589
4 667 638 665 689
4 642 612 638 667
4 618 587 612 642
4 594 562 587 618
4 577 541 562 594
4 553 518 541 577
4 539 503 518 553
4 638 609 637 665
4 612 581 609 638
4 587 556 581 612
4 562 532 556 587
4 541 507 532 562
4 518 483 507 541
4 503 458 483 518
4 609 582 610 637
4 581 549 582 609
4 556 526 549 581
4 532 498 526 556
4 507 469 498 532
4 483 446 469 507
4 458 415 446 483
4 582 557 588 610
4 549 527 557 582
4 526 497 527 549
4 498 465 497 526
4 469 437 465 498
4 446 401 437 469
4 415 375 401 446
4 557 533 563 588
4 527 499 533 557
4 497 464 499 527
4 465 433 464 497
4 437 400 433 465
4 401 364 400 437
4 375 334 364 401
4 533 508 542 563
4 499 473 508 533
4 464 436 473 499
4 433 399 436 464
4 400 360 399 433
4 364 317 360 400
4 334 292 317 364
4 508 485 516 542
4 473 447 485 508
4 436 405 447 473
4 399 363 405 436
4 360 321 363 399
4 317 289 321 360
4 292 257 289 317
4 485 457 502 516
4 447 413 457 485
4 405 377 413 447
4 363 336 377 405
4 321 296 336 363
4 289 256 296 321
4 257 223 256 289
4 457 439 480 502
4 413 392 439 457
4 377 346 392 413
4 336 304 346 377
4 296 265 304 336
4 256 225 265 296
4 223 205 225 256
4 439 420 462 480
4 392 371 420 439
4 346 327 371 392
4 304 279 327 346
4 265 244 279 304
4 225 210 244 265
4 205 194 210 225
4 420 406 451 462
4 371 351 406 420
4 327 310 351 371
4 279 262 310 327
4 244 221 262 279
4 210 196 221 244
4 194 180 196 210
4 406 388 438 451
4 351 339 388 406
4 310 294 339 351
4 262 252 294 310
4 221 213 252 262
4 196 192 213 221
4 180 170 192 196
4 388 381 431 438
4 339 331 381 388
4 294 281 331 339
4 252 237 281 294
4 213 204 237 252
4 192 184 204 213
4 170 166 184 192
4 381 378 426 431
4 331 318 378 381
4 281 277 318 331
4 237 235 277 281
4 204 203 235 237
4 184 182 203 204
4 166 163 182 184
4 378 368 421 426
4 318 315 368 378
4 277 270 315 318
4 235 228 270 277
4 203 199 228 235
4 182 176 199 203
4 163 158 176 182
4 3516 3481 3482 3517
4 3515 3480 3481 3516
4 3514 3479 3480 3515
4 3513 3478 3479 3514
4 3512 3477 3478 3513
4 3511 3476 3477 3512
4 3510 3475 3476 3511
4 3481 3446 3447 3482
4 3480 3445 3446 3481
4 3479 3444 3445 3480
4 3478 3443 3444 3479
4 3477 3442 3443 3478
4 3476 3441 3442 3477
4 3475 3439 3441 3476
4 3446 3411 3412 3447
4 3445 3410 3411 3446
4 3444 3409 3410 3445
4 3443 3408 3409 3444
4 3442 3407 3408 3443
4 3441 3405 3407 3442
4 3439 3404 3405 3441
4 3411 3376 3377 3412
4 3410 3375 3376 3411
4 3409 3374 3375 3410
4 3408 3373 3374 3409
4 3407 3371 3373 3408
4 3405 3370 3371 3407
4 3404 3369 3370 3405
4 3376 3341 3342 3377
4 3375 3340 3341 3376
4 3374 3339 3340 3375
4 3373 3338 3339 3374
4 3371 3336 3338 3373
4 3370 3335 3336 3371
4 3369 3334 3335 3370
4 3341 3306 3307 3342
4 3340 3305 3306 3341
4 3339 3304 3305 3340
4 3338 3303 3304 3339
4 3336 3301 3303 3338
4 3335 3300 3301 3336
4 3334 3299 3300 3335
4 3306 3271 3272 3307
4 3305 3270 3271 3306
4 3304 3269 3270 3305
4 3303 3267 3269 3304
4 3301 3266 3267 3303
4 3300 3265 3266 3301
4 3299 3264 3265 3300
4 3271 3236 3237 3272
4 3270 3235 3236 3271
4 3269 3234 3235 3270
4 3267 3232 3234 3269
4 3266 3231 3232 3267
4 3265 3230 3231 3266
4 3264 3229 3230 3265
4 3236 3201 3202 3237
4 3235 3200 3201 3236
4 3234 3199 3200 3235
4 3232 3197 3199 3234
4 3231 3196 3197 3232
4 3230 3195 3196 3231
4 3229 3194 3195 3230
4 3201 3166 3167 3202
4 3200 3165 3166 3201
4 3199 3163 3165 3200
4 3197 3162 3163 3199
4 3196 3161 3162 3197
4 3195 3160 3161 3196
4 3194 3159 3160 3195
4 3166 3131 3132 3167
4 3165 3130 3131 3166
4 3163 3128 3130 3165
4 3162 3127 3128 3163
4 3161 3126 3127 3162
4 3160 3125 3126 3161
4 3159 3123 3125 3160
4 3131 3096 3097 3132
4 3130 3095 3096 3131
4 3128 3093 3095 3130
4 3127 3092 3093 3128
4 3126 3091 3092 3127
4 3125 3089 3091 3126
4 3123 3088 3089 3125
4 3096 3061 3062 3097
4 3095 3060 3061 3096
4 3093 3058 3060 3095
4 3092 3057 3058 3093
4 3091 3056 3057 3092
4 3089 3054 3056 3091
4 3088 3053 3054 3089
4 3061 3026 3027 3062
4 3060 3025 3026 3061
4 3058 3023 3025 3060
4 3057 3022 3023 3058
4 3056 3020 3022 3057
4 3054 3019 3020 3056
4 3053 3018 3019 3054
4 3026 2991 2992 3027
4 3025 2989 2991 3026
4 3023 2988 2989 3025
4 3022 2987 2988 3023
4 3020 2985 2987 3022
4 3019 2984 2985 3020
4 3018 2982 2984 3019
4 2991 2956 2957 2992
4 2989 2954 2956 2991
4 2988 2953 2954 2989
4 2987 2951 2953 2988
4 2985 2950 2951 2987
4 2984 2948 2950 2985
4 2982 2947 2948 2984
4 2956 2921 2922 2957
4 2954 2919 2921 2956
4 2953 2918 2919 2954
4 2951 2916 2918 2953
4 2950 2915 2916 2951
4 2948 2913 2915 2950
4 2947 2912 2913 2948
4 2921 2886 2887 2922
4 2919 2884 2886 2921
4 2918 2883 2884 2919
4 2916 2881 2883 2918
4 2915 2879 2881 2916
4 2913 2878 2879 2915
4 2912 2877 2878 2913
4 2886 2851 2852 2887
4 2884 2849 2851 2886
4 2883 2848 2849 2884
4 2881 2846 2848 2883
4 2879 2844 2846 2881
4 2878 2843 2844 2879
4 2877 2842 2843 2878
4 2851 2815 2817 2852
4 2849 2814 2815 2851
4 2848 2812 2814 2849
4 2846 2810 2812 2848
4 2844 2809 2810 2846
4 2843 2808 2809 2844
4 2842 2806 2808 2843
4 2815 2780 2782 2817
4 2814 2779 2780 2815
4 2812 2777 2779 2814
4 2810 2775 2777 2812
4 2809 2774 2775 2810
4 2808 2772 2774 2809
4 2806 2771 2772 2808
4 2780 2745 2747 2782
4 2779 2744 2745 2780
4 2777 2742 2744 2779
4 2775 2740 2742 2777
4 2774 2738 2740 2775
4 2772 2737 2738 2774
4 2771 2736 2737 2772
4 2745 2710 2712 2747
4 2744 2709 2710 2745
4 2742 2707 2709 2744
4 2740 2705 2707 2742
4 2738 2703 2705 2740
4 2737 2702 2703 2738
4 2736 2701 2702 2737
4 2710 2675 2677 2712
4 2709 2673 2675 2710
4 2707 2671 2673 2709
4 2705 2670 2671 2707
4 2703 2668 2670 2705
4 2702 2667 2668 2703
4 2701 2666 2667 2702
4 2675 2640 2642 2677
4 2673 2638 2640 2675
4 2671 2636 2638 2673
4 2670 2634 2636 2671
4 2668 2633 2634 2670
4 2667 2632 2633 2668
4 2666 2631 2632 2667
4 2640 2605 2607 2642
4 2638 2603 2605 2640
4 2636 2601 2603 2638
4 2634 2599 2601 2636
4 2633 2598 2599 2634
4 2632 2597 2598 2633
4 2631 2596 2597 2632
4 2605 2570 2573 2607
4 2603 2568 2570 2605
4 2601 2566 2568 2603
4 2599 2564 2566 2601
4 2598 2563 2564 2599
4 2597 2562 2563 2598
4 2596 2560 2562 2597
4 2570 2535 2538 2573
4 2568 2532 2535 2570
4 2566 2530 2532 2568
4 2564 2529 2530 2566
4 2563 2528 2529 2564
4 2562 2526 2528 2563
4 2560 2524 2526 2562
4 2535 2500 2504 2538
4 2532 2497 2500 2535
4 2530 2495 2497 2532
4 2529 2494 2495 2530
4 2528 2493 2494 2529
4 2526 2490 2493 2528
4 2524 2489 2490 2526
4 2500 2464 2469 2504
4 2497 2462 2464 2500
4 2495 2460 2462 2497
4 2494 2459 2460 2495
4 2493 2456 2459 2494
4 2490 2455 2456 2493
4 2489 2454 2455 2490
4 2464 2429 2435 2469
4 2462 2427 2429 2464
4 2460 2425 2427 2462
4 2459 2424 2425 2460
4 2456 2421 2424 2459
4 2455 2420 2421 2456
4 2454 2419 2420 2455
4 2429 2394 2400 2435
4 2427 2392 2394 2429
4 2425 2390 2392 2427
4 2424 2388 2390 2425
4 2421 2386 2388 2424
4 2420 2385 2386 2421
4 2419 2384 2385 2420
4 2394 2361 2365 2400
4 2392 2356 2361 2394
4 2390 2355 2356 2392
4 2388 2352 2355 2390
4 2386 2351 2352 2388
4 2385 2350 2351 2386
4 2384 2349 2350 2385
4 2361 2325 2330 2365
4 2356 2321 2325 2361
4 2355 2320 2321 2356
4 2352 2317 2320 2355
4 2351 2316 2317 2352
4 2350 2315 2316 2351
4 2349 2313 2315 2350
4 2325 2291 2296 2330
4 2321 2286 2291 2325
4 2320 2285 2286 2321
4 2317 2282 2285 2320
4 2316 2281 2282 2317
4 2315 2279 2281 2316
4 2313 2278 2279 2315
4 2291 2256 2260 2296
4 2286 2251 2256 2291
4 2285 2248 2251 2286
4 2282 2247 2248 2285
4 2281 2245 2247 2282
4 2279 2244 2245 2281
4 2278 2243 2244 2279
4 2256 2221 2225 2260
4 2251 2216 2221 2256
4 2248 2213 2216 2251
4 2247 2212 2213 2248
4 2245 2210 2212 2247
4 2244 2209 2210 2245
4 2243 2208 2209 2244
4 2221 2186 2190 2225
4 2216 2182 2186 2221
4 2213 2178 2182 2216
4 2212 2177 2178 2213
4 2210 2175 2177 2212
4 2209 2174 2175 2210
4 2208 2173 2174 2209
4 2186 2151 2156 2190
4 2182 2148 2151 2186
4 2178 2143 2148 2182
4 2177 2141 2143 2178
4 2175 2140 2141 2177
4 2174 2139 2140 2175
4 2173 2136 2139 2174
4 2151 2116 2120 2156
4 2148 2112 2116 2151
4 2143 2108 2112 2148
4 2141 2106 2108 2143
4 2140 2105 2106 2141
4 2139 2102 2105 2140
4 2136 2101 2102 2139
4 2116 2082 2085 2120
4 2112 2077 2082 2116
4 2108 2073 2077 2112
4 2106 2071 2073 2108
4 2105 2070 2071 2106
4 2102 2067 2070 2105
4 2101 2066 2067 2102
4 2082 2047 2050 2085
4 2077 2042 2047 2082
4 2073 2037 2042 2077
4 2071 2036 2037 2073
4 2070 2033 2036 2071
4 2067 2032 2033 2070
4 2066 2031 2032 2067
4 2047 2012 2015 2050
4 2042 2008 2012 2047
4 2037 2004 2008 2042
4 2036 2001 2004 2037
4 2033 1998 2001 2036
4 2032 1997 1998 2033
4 2031 1996 1997 2032
4 2012 1977 1980 2015
4 2008 1973 1977 2012
4 2004 1969 1973 2008
4 2001 1964 1969 2004
4 1998 1963 1964 2001
4 1997 1962 1963 1998
4 1996 1960 1962 1997
4 1977 1943 1945 1980
4 1973 1938 1943 1977
4 1969 1935 1938 1973
4 1964 1929 1935 1969
4 1963 1928 1929 1964
4 1962 1926 1928 1963
4 1960 1925 1926 1962
4 1943 1906 1910 1945
4 1938 1902 1906 1943
4 1935 1900 1902 1938
4 1929 1895 1900 1935
4 1928 1892 1895 1929
4 1926 1891 1892 1928
4 1925 1890 1891 1926
4 1906 1871 1875 1910
4 1902 1868 1871 1906
4 1900 1865 1868 1902
4 1895 1861 1865 1900
4 1892 1857 1861 1895
4 1891 1856 1857 1892
4 1890 1854 1856 1891
4 1871 1836 1840 1875
4 1868 1833 1836 1871
4 1865 1829 1833 1868
4 1861 1825 1829 1865
4 1857 1822 1825 1861
4 1856 1820 1822 1857
4 1854 1819 1820 1856
4 1836 1801 1805 1840
4 1833 1798 1801 1836
4 1829 1794 1798 1833
4 1825 1791 1794 1829
4 1822 1788 1791 1825
4 1820 1785 1788 1822
4 1819 1784 1785 1820
4 1801 1766 1770 1805
4 1798 1763 1766 1801
4 1794 1759 1763 1798
4 1791 1756 1759 1794
4 1788 1753 1756 1791
4 1785 1748 1753 1788
4 1784 1747 1748 1785
4 1766 1732 1736 1770
4 1763 1729 1732 1766
4 1759 1725 1729 1763
4 1756 1722 1725 1759
4 1753 1719 1722 1756
4 1748 1714 1719 1753
4 1747 1711 1714 1748
4 1732 1696 1699 1736
4 1729 1692 1696 1732
4 1725 1689 1692 1729
4 1722 1686 1689 1725
4 1719 1681 1686 1722
4 1714 1677 1681 1719
4 1711 1676 1677 1714
4 1696 1661 1664 1699
4 1692 1657 1661 1696
4 1689 1654 1657 1692
4 1686 1650 1654 1689
4 1681 1646 1650 1686
4 1677 1643 1646 1681
4 1676 1642 1643 1677
4 1661 1626 1629 1664
4 1657 1622 1626 1661
4 1654 1619 1622 1657
4 1650 1615 1619 1654
4 1646 1610 1615 1650
4 1643 1608 1610 1646
4 1642 1607 1608 1643
4 1626 1591 1594 1629
4 1622 1587 1591 1626
4 1619 1583 1587 1622
4 1615 1579 1583 1619
4 1610 1575 1579 1615
4 1608 1574 1575 1610
4 1607 1571 1574 1608
4 1591 1556 1559 1594
4 1587 1551 1556 1591
4 1583 1548 1551 1587
4 1579 1542 1548 1583
4 1575 1539 1542 1579
4 1574 1538 1539 1575
4 1571 1537 1538 1574
4 1556 1519 1524 1559
4 1551 1516 1519 1556
4 1548 1513 1516 1551
4 1542 1507 1513 1548
4 1539 1505 1507 1542
4 1538 1502 1505 1539
4 1537 1501 1502 1538
4 1519 1485 1489 1524
4 1516 1481 1485 1519
4 1513 1476 1481 1516
4 1507 1471 1476 1513
4 1505 1469 1471 1507
4 1502 1467 1469 1505
4 1501 1466 1467 1502
4 1485 1450 1454 1489
4 1481 1446 1450 1485
4 1476 1439 1446 1481
4 1471 1436 1439 1476
4 1469 1434 1436 1471
4 1467 1433 1434 1469
4 1466 1430 1433 1467
4 1450 1414 1419 1454
4 1446 1410 1414 1450
4 1439 1403 1410 1446
4 1436 1401 1403 1439
4 1434 1399 1401 1436
4 1433 1396 1399 1434
4 1430 1395 1396 1433
4 1414 1379 1384 1419
4 1410 1374 1379 1414
4 1403 1368 1374 1410
4 1401 1366 1368 1403
4 1399 1362 1366 1401
4 1396 1361 1362 1399
4 1395 1360 1361 1396
4 1379 1343 1349 1384
4 1374 1337 1343 1379
4 1368 1333 1337 1374
4 1366 1330 1333 1368
4 1362 1328 1330 1366
4 1361 1326 1328 1362
4 1360 1325 1326 1361
4 1343 1308 1313 1349
4 1337 1302 1308 1343
4 1333 1297 1302 1337
4 1330 1295 1297 1333
4 1328 1293 1295 1330
4 1326 1292 1293 1328
4 1325 1288 1292 1326
4 1308 1272 1278 1313
4 1302 1265 1272 1308
4 1297 1262 1265 1302
4 1295 1259 1262 1297
4 1293 1257 1259 1295
4 1292 1255 1257 1293
4 1288 1254 1255 1292
4 1272 1238 1244 1278
4 1265 1230 1238 1272
4 1262 1227 1230 1265
4 1259 1225 1227 1262
4 1257 1221 1225 1259
4 1255 1220 1221 1257
4 1254 1219 1220 1255
4 1238 1201 1209 1244
4 1230 1194 1201 1238
4 1227 1192 1194 1230
4 1225 1188 1192 1227
4 1221 1186 1188 1225
4 1220 1185 1186 1221
4 1219 1182 1185 1220
4 1201 1167 1175 1209
4 1194 1159 1167 1201
4 1192 1154 1159 1194
4 1188 1153 1154 1192
4 1186 1150 1153 1188
4 1185 1148 1150 1186
4 1182 1147 1148 1185
4 1167 1131 1140 1175
4 1159 1124 1131 1167
4 1154 1120 1124 1159
4 1153 1117 1120 1154
4 1150 1115 1117 1153
4 1148 1114 1115 1150
4 1147 1111 1114 1148
4 1131 1096 1104 1140
4 1124 1089 1096 1131
4 1120 1084 1089 1124
4 1117 1081 1084 1120
4 1115 1080 1081 1117
4 1114 1078 1080 1115
4 1111 1074 1078 1114
4 1096 1060 1069 1104
4 1089 1054 1060 1096
4 1084 1049 1054 1089
4 1081 1046 1049 1084
4 1080 1041 1046 1081
4 1078 1040 1041 1080
4 1074 1039 1040 1078
4 1060 1026 1035 1069
4 1054 1020 1026 1060
4 1049 1013 1020 1054
4 1046 1009 1013 1049
4 1041 1005 1009 1046
4 1040 1004 1005 1041
4 1039 1002 1004 1040
4 1026 989 998 1035
4 1020 984 989 1026
4 1013 978 984 1020
4 1009 972 978 1013
4 1005 970 972 1009
4 1004 967 970 1005
4 1002 966 967 1004
4 989 953 964 998
4 984 949 953 989
4 978 943 949 984
4 972 937 943 978
4 970 933 937 972
4 967 932 933 970
4 966 930 932 967
4 953 920 927 964
4 949 914 920 953
4 943 907 914 949
4 937 902 907 943
4 933 898 902 937
4 932 895 898 933
4 930 892 895 932
4 920 885 891 927
4 914 877 885 920
4 907 873 877 914
4 902 866 873 907
4 898 863 866 902
4 895 856 863 898
4 892 855 856 895
4 885 849 854 891
4 877 840 849 885
4 873 836 840 877
4 866 831 836 873
4 863 824 831 866
4 856 820 824 863
4 855 817 820 856
4 849 813 822 854
4 840 805 813 849
4 836 800 805 840
4 831 791 800 836
4 824 788 791 831
4 820 784 788 824
4 817 783 784 820
4 813 774 787 822
4 805 769 774 813
4 800 761 769 805
4 791 755 761 800
4 788 751 755 791
4 784 749 751 788
4 783 746 749 784
4 774 740 752 787
4 769 734 740 774
4 761 724 734 769
4 755 719 724 761
4 751 715 719 755
4 749 710 715 751
4 746 709 710 749
4 740 707 717 752
4 734 697 707 740
4 724 686 697 734
4 719 681 686 724
4 715 677 681 719
4 710 674 677 715
4 709 670 674 710
4 707 669 682 717
4 697 657 669 707
4 686 649 657 697
4 681 645 649 686
4 677 639 645 681
4 674 635 639 677
4 670 634 635 674
4 669 632 646 682
4 657 621 632 669
4 649 611 621 657
4 645 604 611 649
4 639 601 604 645
4 635 596 601 639
4 634 593 596 635
4 632 598 608 646
4 621 583 598 632
4 611 576 583 621
4 604 566 576 611
4 601 561 566 604
4 596 554 561 601
4 593 551 554 596
4 598 559 574 608
4 583 546 559 598
4 576 536 546 583
4 566 523 536 576
4 561 515 523 566
4 554 513 515 561
4 551 511 513 554
4 559 521 539 574
4 546 506 521 559
4 536 492 506 546
4 523 487 492 536
4 515 479 487 523
4 513 477 479 515
4 511 470 477 513
4 521 482 503 539
4 506 466 482 521
4 492 450 466 506
4 487 440 450 492
4 479 430 440 487
4 477 428 430 479
4 470 423 428 477
4 482 443 458 503
4 466 418 443 482
4 450 402 418 466
4 440 391 402 450
4 430 380 391 440
4 428 373 380 430
4 423 369 373 428
4 443 393 415 458
4 418 367 393 443
4 402 352 367 418
4 391 340 352 402
4 380 329 340 391
4 373 322 329 380
4 369 316 322 373
4 393 348 375 415
4 367 324 348 393
4 352 311 324 367
4 340 295 311 352
4 329 286 295 340
4 322 275 286 329
4 316 271 275 322
4 348 307 334 375
4 324 282 307 348
4 311 264 282 324
4 295 249 264 311
4 286 239 249 295
4 275 232 239 286
4 271 229 232 275
4 307 266 292 334
4 282 247 266 307
4 264 222 247 282
4 249 212 222 264
4 239 208 212 249
4 232 202 208 239
4 229 200 202 232
4 266 231 257 292
4 247 211 231 266
4 222 197 211 247
4 212 191 197 222
4 208 183 191 212
4 202 179 183 208
4 200 177 179 202
4 231 206 223 257
4 211 193 206 231
4 197 181 193 211
4 191 171 181 197
4 183 168 171 191
4 179 161 168 183
4 177 159 161 179
4 206 189 205 223
4 193 173 189 206
4 181 164 173 193
4 171 151 164 181
4 168 146 151 171
4 161 144 146 168
4 159 140 144 161
4 189 174 194 205
4 173 162 174 189
4 164 149 162 173
4 151 138 149 164
4 146 132 138 151
4 144 129 132 146
4 140 124 129 144
4 174 165 180 194
4 162 148 165 174
4 149 137 148 162
4 138 123 137 149
4 132 119 123 138
4 129 114 119 132
4 124 111 114 129
4 165 154 170 180
4 148 139 154 165
4 137 128 139 148
4 123 118 128 137
4 119 109 118 123
4 114 106 109 119
4 111 102 106 114
4 154 147 166 170
4 139 133 147 154
4 128 120 133 139
4 118 108 120 128
4 109 101 108 118
4 106 97 101 109
4 102 94 97 106
4 147 145 163 166
4 133 130 145 147
4 120 115 130 133
4 108 105 115 120
4 101 98 105 108
4 97 93 98 101
4 94 90 93 97
4 145 141 158 163
4 130 125 141 145
4 115 112 125 130
4 105 103 112 115
4 98 95 103 105
4 93 91 95 98
4 90 87 91 93
4 3508 3473 3475 3510
4 3505 3470 3473 3508
4 3503 3468 3470 3505
4 3500 3465 3468 3503
4 3498 3463 3465 3500
4 3473 3437 3439 3475
4 3470 3434 3437 3473
4 3468 3432 3434 3470
4 3465 3429 3432 3468
4 3463 3426 3429 3465
4 3437 3402 3404 3439
4 3434 3399 3402 3437
4 3432 3396 3399 3434
4 3429 3394 3396 3432
4 3426 3391 3394 3429
4 3402 3367 3369 3404
4 3399 3364 3367 3402
4 3396 3361 3364 3399
4 3394 3359 3361 3396
4 3391 3356 3359 3394
4 3367 3332 3334 3369
4 3364 3329 3332 3367
4 3361 3326 3329 3364
4 3359 3324 3326 3361
4 3356 3321 3324 3359
4 3332 3296 3299 3334
4 3329 3294 3296 3332
4 3326 3291 3294 3329
4 3324 3289 3291 3326
4 3321 3285 3289 3324
4 3296 3261 3264 3299
4 3294 3259 3261 3296
4 3291 3256 3259 3294
4 3289 3254 3256 3291
4 3285 3250 3254 3289
4 3261 3226 3229 3264
4 3259 3224 3226 3261
4 3256 3221 3224 3259
4 3254 3217 3221 3256
4 3250 3215 3217 3254
4 3226 3191 3194 3229
4 3224 3189 3191 3226
4 3221 3185 3189 3224
4 3217 3182 3185 3221
4 3215 3180 3182 3217
4 3191 3156 3159 3194
4 3189 3152 3156 3191
4 3185 3150 3152 3189
4 3182 3147 3150 3185
4 3180 3144 3147 3182
4 3156 3120 3123 3159
4 3152 3117 3120 3156
4 3150 3115 3117 3152
4 3147 3112 3115 3150
4 3144 3109 3112 3147
4 3120 3085 3088 3123
4 3117 3082 3085 3120
4 3115 3080 3082 3117
4 3112 3076 3080 3115
4 3109 3072 3076 3112
4 3085 3050 3053 3088
4 3082 3047 3050 3085
4 3080 3045 3047 3082
4 3076 3041 3045 3080
4 3072 3037 3041 3076
4 3050 3015 3018 3053
4 3047 3012 3015 3050
4 3045 3008 3012 3047
4 3041 3006 3008 3045
4 3037 3001 3006 3041
4 3015 2980 2982 3018
4 3012 2977 2980 3015
4 3008 2973 2977 3012
4 3006 2971 2973 3008
4 3001 2965 2971 3006
4 2980 2945 2947 2982
4 2977 2941 2945 2980
4 2973 2938 2941 2977
4 2971 2935 2938 2973
4 2965 2930 2935 2971
4 2945 2910 2912 2947
4 2941 2906 2910 2945
4 2938 2903 2906 2941
4 2935 2900 2903 2938
4 2930 2895 2900 2935
4 2910 2874 2877 2912
4 2906 2871 2874 2910
4 2903 2868 2871 2906
4 2900 2863 2868 2903
4 2895 2860 2863 2900
4 2874 2838 2842 2877
4 2871 2836 2838 2874
4 2868 2832 2836 2871
4 2863 2828 2832 2868
4 2860 2825 2828 2863
4 2838 2803 2806 2842
4 2836 2801 2803 2838
4 2832 2797 2801 2836
4 2828 2791 2797 2832
4 2825 2790 2791 2828
4 2803 2768 2771 2806
4 2801 2766 2768 2803
4 2797 2762 2766 2801
4 2791 2756 2762 2797
4 2790 2755 2756 2791
4 2768 2733 2736 2771
4 2766 2729 2733 2768
4 2762 2726 2729 2766
4 2756 2721 2726 2762
4 2755 2719 2721 2756
4 2733 2698 2701 2736
4 2729 2694 2698 2733
4 2726 2691 2694 2729
4 2721 2686 2691 2726
4 2719 2684 2686 2721
4 2698 2663 2666 2701
4 2694 2659 2663 2698
4 2691 2656 2659 2694
4 2686 2651 2656 2691
4 2684 2649 2651 2686
4 2663 2627 2631 2666
4 2659 2624 2627 2663
4 2656 2619 2624 2659
4 2651 2616 2619 2656
4 2649 2614 2616 2651
4 2627 2592 2596 2631
4 2624 2588 2592 2627
4 2619 2583 2588 2624
4 2616 2581 2583 2619
4 2614 2579 2581 2616
4 2592 2557 2560 2596
4 2588 2553 2557 2592
4 2583 2547 2553 2588
4 2581 2546 2547 2583
4 2579 2544 2546 2581
4 2557 2522 2524 2560
4 2553 2518 2522 2557
4 2547 2512 2518 2553
4 2546 2510 2512 2547
4 2544 2509 2510 2546
4 2522 2487 2489 2524
4 2518 2483 2487 2522
4 2512 2477 2483 2518
4 2510 2475 2477 2512
4 2509 2474 2475 2510
4 2487 2450 2454 2489
4 2483 2447 2450 2487
4 2477 2442 2447 2483
4 2475 2440 2442 2477
4 2474 2438 2440 2475
4 2450 2415 2419 2454
4 2447 2412 2415 2450
4 2442 2407 2412 2447
4 2440 2405 2407 2442
4 2438 2403 2405 2440
4 2415 2380 2384 2419
4 2412 2375 2380 2415
4 2407 2372 2375 2412
4 2405 2370 2372 2407
4 2403 2367 2370 2405
4 2380 2345 2349 2384
4 2375 2339 2345 2380
4 2372 2337 2339 2375
4 2370 2335 2337 2372
4 2367 2332 2335 2370
4 2345 2310 2313 2349
4 2339 2303 2310 2345
4 2337 2301 2303 2339
4 2335 2300 2301 2337
4 2332 2297 2300 2335
4 2310 2274 2278 2313
4 2303 2268 2274 2310
4 2301 2266 2268 2303
4 2300 2264 2266 2301
4 2297 2262 2264 2300
4 2274 2239 2243 2278
4 2268 2233 2239 2274
4 2266 2231 2233 2268
4 2264 2228 2231 2266
4 2262 2226 2228 2264
4 2239 2204 2208 2243
4 2233 2198 2204 2239
4 2231 2196 2198 2233
4 2228 2193 2196 2231
4 2226 2191 2193 2228
4 2204 2168 2173 2208
4 2198 2163 2168 2204
4 2196 2160 2163 2198
4 2193 2158 2160 2196
4 2191 2154 2158 2193
4 2168 2133 2136 2173
4 2163 2128 2133 2168
4 2160 2125 2128 2163
4 2158 2122 2125 2160
4 2154 2119 2122 2158
4 2133 2098 2101 2136
4 2128 2093 2098 2133
4 2125 2090 2093 2128
4 2122 2087 2090 2125
4 2119 2084 2087 2122
4 2098 2061 2066 2101
4 2093 2058 2061 2098
4 2090 2055 2058 2093
4 2087 2051 2055 2090
4 2084 2048 2051 2087
4 2061 2024 2031 2066
4 2058 2021 2024 2061
4 2055 2019 2021 2058
4 2051 2016 2019 2055
4 2048 2013 2016 2051
4 2024 1989 1996 2031
4 2021 1986 1989 2024
4 2019 1983 1986 2021
4 2016 1979 1983 2019
4 2013 1978 1979 2016
4 1989 1954 1960 1996
4 1986 1951 1954 1989
4 1983 1948 1951 1986
4 1979 1944 1948 1983
4 1978 1942 1944 1979
4 1954 1919 1925 1960
4 1951 1916 1919 1954
4 1948 1912 1916 1951
4 1944 1909 1912 1948
4 1942 1905 1909 1944
4 1919 1883 1890 1925
4 1916 1880 1883 1919
4 1912 1877 1880 1916
4 1909 1874 1877 1912
4 1905 1870 1874 1909
4 1883 1848 1854 1890
4 1880 1845 1848 1883
4 1877 1841 1845 1880
4 1874 1838 1841 1877
4 1870 1835 1838 1874
4 1848 1813 1819 1854
4 1845 1809 1813 1848
4 1841 1806 1809 1845
4 1838 1802 1806 1841
4 1835 1799 1802 1838
4 1813 1778 1784 1819
4 1809 1774 1778 1813
4 1806 1771 1774 1809
4 1802 1767 1771 1806
4 1799 1764 1767 1802
4 1778 1742 1747 1784
4 1774 1738 1742 1778
4 1771 1735 1738 1774
4 1767 1731 1735 1771
4 1764 1728 1731 1767
4 1742 1706 1711 1747
4 1738 1702 1706 1742
4 1735 1698 1702 1738
4 1731 1695 1698 1735
4 1728 1691 1695 1731
4 1706 1670 1676 1711
4 1702 1667 1670 1706
4 1698 1663 1667 1702
4 1695 1660 1663 1698
4 1691 1656 1660 1695
4 1670 1635 1642 1676
4 1667 1632 1635 1670
4 1663 1628 1632 1667
4 1660 1623 1628 1663
4 1656 1620 1623 1660
4 1635 1600 1607 1642
4 1632 1596 1600 1635
4 1628 1592 1596 1632
4 1623 1588 1592 1628
4 1620 1584 1588 1623
4 1600 1564 1571 1607
4 1596 1560 1564 1600
4 1592 1557 1560 1596
4 1588 1552 1557 1592
4 1584 1547 1552 1588
4 1564 1529 1537 1571
4 1560 1525 1529 1564
4 1557 1520 1525 1560
4 1552 1515 1520 1557
4 1547 1509 1515 1552
4 1529 1494 1501 1537
4 1525 1490 1494 1529
4 1520 1484 1490 1525
4 1515 1479 1484 1520
4 1509 1472 1479 1515
4 1494 1459 1466 1501
4 1490 1453 1459 1494
4 1484 1448 1453 1490
4 1479 1443 1448 1484
4 1472 1435 1443 1479
4 1459 1421 1430 1466
4 1453 1418 1421 1459
4 1448 1412 1418 1453
4 1443 1404 1412 1448
4 1435 1400 1404 1443
4 1421 1387 1395 1430
4 1418 1380 1387 1421
4 1412 1377 1380 1418
4 1404 1367 1377 1412
4 1400 1363 1367 1404
4 1387 1353 1360 1395
4 1380 1345 1353 1387
4 1377 1340 1345 1380
4 1367 1332 1340 1377
4 1363 1327 1332 1367
4 1353 1318 1325 1360
4 1345 1310 1318 1353
4 1340 1301 1310 1345
4 1332 1296 1301 1340
4 1327 1289 1296 1332
4 1318 1282 1288 1325
4 1310 1274 1282 1318
4 1301 1264 1274 1310
4 1296 1260 1264 1301
4 1289 1253 1260 1296
4 1282 1246 1254 1288
4 1274 1236 1246 1282
4 1264 1228 1236 1274
4 1260 1222 1228 1264
4 1253 1218 1222 1260
4 1246 1211 1219 1254
4 1236 1200 1211 1246
4 1228 1193 1200 1236
4 1222 1187 1193 1228
4 1218 1180 1187 1222
4 1211 1174 1182 1219
4 1200 1161 1174 1211
4 1193 1157 1161 1200
4 1187 1149 1157 1193
4 1180 1143 1149 1187
4 1174 1138 1147 1182
4 1161 1125 1138 1174
4 1157 1119 1125 1161
4 1149 1112 1119 1157
4 1143 1107 1112 1149
4 1138 1102 1111 1147
4 1125 1090 1102 1138
4 1119 1083 1090 1125
4 1112 1073 1083 1119
4 1107 1070 1073 1112
4 1102 1066 1074 1111
4 1090 1055 1066 1102
4 1083 1047 1055 1090
4 1073 1037 1047 1083
4 1070 1032 1037 1073
4 1066 1029 1039 1074
4 1055 1017 1029 1066
4 1047 1008 1017 1055
4 1037 1000 1008 1047
4 1032 994 1000 1037
4 1029 992 1002 1039
4 1017 982 992 1029
4 1008 971 982 1017
4 1000 963 971 1008
4 994 955 963 1000
4 992 954 966 1002
4 982 946 954 992
4 971 934 946 982
4 963 922 934 971
4 955 918 922 963
4 954 919 930 966
4 946 909 919 954
4 934 896 909 946
4 922 886 896 934
4 918 880 886 922
4 919 882 892 930
4 909 871 882 919
4 896 852 871 909
4 886 848 852 896
4 880 841 848 886
4 882 845 855 892
4 871 834 845 882
4 852 816 834 871
4 848 809 816 852
4 841 803 809 848
4 845 807 817 855
4 834 794 807 845
4 816 780 794 834
4 809 772 780 816
4 803 764 772 809
4 807 770 783 817
4 794 756 770 807
4 780 741 756 794
4 772 731 741 780
4 764 721 731 772
4 770 730 746 783
4 756 716 730 770
4 741 702 716 756
4 731 688 702 741
4 721 680 688 731
4 730 692 709 746
4 716 678 692 730
4 702 664 678 716
4 688 651 664 702
4 680 640 651 688
4 692 652 670 709
4 678 636 652 692
4 664 622 636 678
4 651 605 622 664
4 640 595 605 651
4 652 615 634 670
4 636 599 615 652
4 622 580 599 636
4 605 565 580 622
4 595 548 565 605
4 615 575 593 634
4 599 550 575 615
4 580 537 550 599
4 565 519 537 580
4 548 504 519 565
4 575 535 551 593
4 550 510 535 575
4 537 489 510 550
4 519 471 489 537
4 504 455 471 519
4 535 488 511 551
4 510 460 488 535
4 489 444 460 510
4 471 412 444 489
4 455 396 412 471
4 488 445 470 511
4 460 409 445 488
4 444 382 409 460
4 412 359 382 444
4 396 338 359 412
4 445 387 423 470
4 409 353 387 445
4 382 323 353 409
4 359 297 323 382
4 338 272 297 359
4 387 337 369 423
4 353 300 337 387
4 323 267 300 353
4 297 243 267 323
4 272 215 243 297
4 337 283 316 369
4 300 248 283 337
4 267 214 248 300
4 243 198 214 267
4 215 185 198 243
4 283 236 271 316
4 248 207 236 283
4 214 187 207 248
4 198 169 187 214
4 185 156 169 198
4 236 201 229 271
4 207 178 201 236
4 187 160 178 207
4 169 142 160 187
4 156 126 142 169
4 201 175 200 229
4 178 155 175 201
4 160 135 155 178
4 142 117 135 160
4 126 99 117 142
4 175 152 177 200
4 155 131 152 175
4 135 110 131 155
4 117 89 110 135
4 99 80 89 117
4 152 134 159 177
4 131 107 134 152
4 110 85 107 131
4 89 76 85 110
4 80 67 76 89
4 134 116 140 159
4 107 86 116 134
4 85 77 86 107
4 76 64 77 85
4 67 55 64 76
4 116 100 124 140
4 86 79 100 116
4 77 68 79 86
4 64 54 68 77
4 55 45 54 64
4 100 83 111 124
4 79 69 83 100
4 68 58 69 79
4 54 48 58 68
4 45 39 48 54
4 83 81 102 111
4 69 66 81 83
4 58 53 66 69
4 48 42 53 58
4 39 32 42 48
4 81 75 94 102
4 66 62 75 81
4 53 51 62 66
4 42 38 51 53
4 32 28 38 42
4 75 73 90 94
4 62 59 73 75
4 51 46 59 62
4 38 35 46 51
4 28 27 35 38
4 73 71 87 90
4 59 56 71 73
4 46 43 56 59
4 35 33 43 46
4 27 23 33 35
4 3495 3460 3463 3498
4 3493 3458 3460 3495
4 3491 3456 3458 3493
4 3488 3453 3456 3491
4 3487 3451 3453 3488
4 3460 3424 3426 3463
4 3458 3422 3424 3460
4 3456 3419 3422 3458
4 3453 3417 3419 3456
4 3451 3415 3417 3453
4 3424 3389 3391 3426
4 3422 3387 3389 3424
4 3419 3384 3387 3422
4 3417 3381 3384 3419
4 3415 3380 3381 3417
4 3389 3354 3356 3391
4 3387 3352 3354 3389
4 3384 3347 3352 3387
4 3381 3346 3347 3384
4 3380 3345 3346 3381
4 3354 3319 3321 3356
4 3352 3315 3319 3354
4 3347 3312 3315 3352
4 3346 3311 3312 3347
4 3345 3310 3311 3346
4 3319 3283 3285 3321
4 3315 3279 3283 3319
4 3312 3277 3279 3315
4 3311 3276 3277 3312
4 3310 3275 3276 3311
4 3283 3248 3250 3285
4 3279 3243 3248 3283
4 3277 3242 3243 3279
4 3276 3241 3242 3277
4 3275 3240 3241 3276
4 3248 3211 3215 3250
4 3243 3208 3211 3248
4 3242 3207 3208 3243
4 3241 3206 3207 3242
4 3240 3205 3206 3241
4 3211 3176 3180 3215
4 3208 3173 3176 3211
4 3207 3172 3173 3208
4 3206 3171 3172 3207
4 3205 3169 3171 3206
4 3176 3139 3144 3180
4 3173 3138 3139 3176
4 3172 3137 3138 3173
4 3171 3135 3137 3172
4 3169 3134 3135 3171
4 3139 3104 3109 3144
4 3138 3103 3104 3139
4 3137 3102 3103 3138
4 3135 3100 3102 3137
4 3134 3099 3100 3135
4 3104 3069 3072 3109
4 3103 3068 3069 3104
4 3102 3066 3068 3103
4 3100 3065 3066 3102
4 3099 3064 3065 3100
4 3069 3034 3037 3072
4 3068 3033 3034 3069
4 3066 3031 3033 3068
4 3065 3030 3031 3066
4 3064 3029 3030 3065
4 3034 2999 3001 3037
4 3033 2997 2999 3034
4 3031 2996 2997 3033
4 3030 2995 2996 3031
4 3029 2994 2995 3030
4 2999 2964 2965 3001
4 2997 2962 2964 2999
4 2996 2961 2962 2997
4 2995 2960 2961 2996
4 2994 2959 2960 2995
4 2964 2929 2930 2965
4 2962 2927 2929 2964
4 2961 2926 2927 2962
4 2960 2925 2926 2961
4 2959 2924 2925 2960
4 2929 2894 2895 2930
4 2927 2892 2894 2929
4 2926 2891 2892 2927
4 2925 2890 2891 2926
4 2924 2889 2890 2925
4 2894 2858 2860 2895
4 2892 2857 2858 2894
4 2891 2856 2857 2892
4 2890 2855 2856 2891
4 2889 2853 2855 2890
4 2858 2823 2825 2860
4 2857 2822 2823 2858
4 2856 2821 2822 2857
4 2855 2819 2821 2856
4 2853 2818 2819 2855
4 2823 2788 2790 2825
4 2822 2787 2788 2823
4 2821 2785 2787 2822
4 2819 2784 2785 2821
4 2818 2783 2784 2819
4 2788 2753 2755 2790
4 2787 2752 2753 2788
4 2785 2750 2752 2787
4 2784 2749 2750 2785
4 2783 2748 2749 2784
4 2753 2718 2719 2755
4 2752 2717 2718 2753
4 2750 2715 2717 2752
4 2749 2714 2715 2750
4 2748 2713 2714 2749
4 2718 2683 2684 2719
4 2717 2681 2683 2718
4 2715 2680 2681 2717
4 2714 2679 2680 2715
4 2713 2678 2679 2714
4 2683 2648 2649 2684
4 2681 2646 2648 2683
4 2680 2645 2646 2681
4 2679 2644 2645 2680
4 2678 2643 2644 2679
4 2648 2613 2614 2649
4 2646 2611 2613 2648
4 2645 2610 2611 2646
4 2644 2609 2610 2645
4 2643 2608 2609 2644
4 2613 2577 2579 2614
4 2611 2576 2577 2613
4 2610 2575 2576 2611
4 2609 2572 2575 2610
4 2608 2571 2572 2609
4 2577 2542 2544 2579
4 2576 2541 2542 2577
4 2575 2539 2541 2576
4 2572 2537 2539 2575
4 2571 2536 2537 2572
4 2542 2507 2509 2544
4 2541 2505 2507 2542
4 2539 2503 2505 2541
4 2537 2502 2503 2539
4 2536 2501 2502 2537
4 2507 2472 2474 2509
4 2505 2470 2472 2507
4 2503 2468 2470 2505
4 2502 2467 2468 2503
4 2501 2466 2467 2502
4 2472 2436 2438 2474
4 2470 2434 2436 2472
4 2468 2433 2434 2470
4 2467 2432 2433 2468
4 2466 2430 2432 2467
4 2436 2401 2403 2438
4 2434 2399 2401 2436
4 2433 2397 2399 2434
4 2432 2396 2397 2433
4 2430 2395 2396 2432
4 2401 2366 2367 2403
4 2399 2364 2366 2401
4 2397 2362 2364 2399
4 2396 2360 2362 2397
4 2395 2358 2360 2396
4 2366 2331 2332 2367
4 2364 2328 2331 2366
4 2362 2326 2328 2364
4 2360 2324 2326 2362
4 2358 2323 2324 2360
4 2331 2294 2297 2332
4 2328 2293 2294 2331
4 2326 2290 2293 2328
4 2324 2289 2290 2326
4 2323 2287 2289 2324
4 2294 2259 2262 2297
4 2293 2257 2259 2294
4 2290 2255 2257 2293
4 2289 2253 2255 2290
4 2287 2252 2253 2289
4 2259 2223 2226 2262
4 2257 2222 2223 2259
4 2255 2219 2222 2257
4 2253 2218 2219 2255
4 2252 2217 2218 2253
4 2223 2188 2191 2226
4 2222 2185 2188 2223
4 2219 2184 2185 2222
4 2218 2183 2184 2219
4 2217 2181 2183 2218
4 2188 2153 2154 2191
4 2185 2150 2153 2188
4 2184 2149 2150 2185
4 2183 2147 2149 2184
4 2181 2144 2147 2183
4 2153 2117 2119 2154
4 2150 2115 2117 2153
4 2149 2113 2115 2150
4 2147 2110 2113 2149
4 2144 2109 2110 2147
4 2117 2081 2084 2119
4 2115 2080 2081 2117
4 2113 2076 2080 2115
4 2110 2075 2076 2113
4 2109 2074 2075 2110
4 2081 2046 2048 2084
4 2080 2043 2046 2081
4 2076 2041 2043 2080
4 2075 2040 2041 2076
4 2074 2039 2040 2075
4 2046 2010 2013 2048
4 2043 2007 2010 2046
4 2041 2005 2007 2043
4 2040 2003 2005 2041
4 2039 2002 2003 2040
4 2010 1974 1978 2013
4 2007 1972 1974 2010
4 2005 1970 1972 2007
4 2003 1968 1970 2005
4 2002 1967 1968 2003
4 1974 1939 1942 1978
4 1972 1936 1939 1974
4 1970 1934 1936 1972
4 1968 1933 1934 1970
4 1967 1930 1933 1968
4 1939 1904 1905 1942
4 1936 1901 1904 1939
4 1934 1897 1901 1936
4 1933 1896 1897 1934
4 1930 1894 1896 1933
4 1904 1867 1870 1905
4 1901 1866 1867 1904
4 1897 1862 1866 1901
4 1896 1860 1862 1897
4 1894 1858 1860 1896
4 1867 1832 1835 1870
4 1866 1828 1832 1867
4 1862 1827 1828 1866
4 1860 1824 1827 1862
4 1858 1823 1824 1860
4 1832 1795 1799 1835
4 1828 1793 1795 1832
4 1827 1790 1793 1828
4 1824 1787 1790 1827
4 1823 1786 1787 1824
4 1795 1760 1764 1799
4 1793 1757 1760 1795
4 1790 1754 1757 1793
4 1787 1752 1754 1790
4 1786 1749 1752 1787
4 1760 1724 1728 1764
4 1757 1721 1724 1760
4 1754 1717 1721 1757
4 1752 1713 1717 1754
4 1749 1710 1713 1752
4 1724 1688 1691 1728
4 1721 1684 1688 1724
4 1717 1679 1684 1721
4 1713 1675 1679 1717
4 1710 1674 1675 1713
4 1688 1651 1656 1691
4 1684 1647 1651 1688
4 1679 1641 1647 1684
4 1675 1640 1641 1679
4 1674 1639 1640 1675
4 1651 1616 1620 1656
4 1647 1609 1616 1651
4 1641 1606 1609 1647
4 1640 1604 1606 1641
4 1639 1603 1604 1640
4 1616 1577 1584 1620
4 1609 1572 1577 1616
4 1606 1570 1572 1609
4 1604 1567 1570 1606
4 1603 1566 1567 1604
4 1577 1540 1547 1584
4 1572 1536 1540 1577
4 1570 1533 1536 1572
4 1567 1532 1533 1570
4 1566 1531 1532 1567
4 1540 1504 1509 1547
4 1536 1499 1504 1540
4 1533 1497 1499 1536
4 1532 1496 1497 1533
4 1531 1495 1496 1532
4 1504 1468 1472 1509
4 1499 1463 1468 1504
4 1497 1462 1463 1499
4 1496 1461 1462 1497
4 1495 1460 1461 1496
4 1468 1429 1435 1472
4 1463 1428 1429 1468
4 1462 1427 1428 1463
4 1461 1425 1427 1462
4 1460 1422 1425 1461
4 1429 1394 1400 1435
4 1428 1393 1394 1429
4 1427 1390 1393 1428
4 1425 1388 1390 1427
4 1422 1386 1388 1425
4 1394 1359 1363 1400
4 1393 1356 1359 1394
4 1390 1354 1356 1393
4 1388 1352 1354 1390
4 1386 1350 1352 1388
4 1359 1322 1327 1363
4 1356 1320 1322 1359
4 1354 1317 1320 1356
4 1352 1316 1317 1354
4 1350 1315 1316 1352
4 1322 1286 1289 1327
4 1320 1284 1286 1322
4 1317 1281 1284 1320
4 1316 1277 1281 1317
4 1315 1276 1277 1316
4 1286 1249 1253 1289
4 1284 1248 1249 1286
4 1281 1243 1248 1284
4 1277 1242 1243 1281
4 1276 1241 1242 1277
4 1249 1214 1218 1253
4 1248 1210 1214 1249
4 1243 1206 1210 1248
4 1242 1205 1206 1243
4 1241 1204 1205 1242
4 1214 1177 1180 1218
4 1210 1172 1177 1214
4 1206 1169 1172 1210
4 1205 1168 1169 1206
4 1204 1166 1168 1205
4 1177 1139 1143 1180
4 1172 1135 1139 1177
4 1169 1132 1135 1172
4 1168 1128 1132 1169
4 1166 1126 1128 1168
4 1139 1103 1107 1143
4 1135 1097 1103 1139
4 1132 1093 1097 1135
4 1128 1092 1093 1132
4 1126 1091 1092 1128
4 1103 1063 1070 1107
4 1097 1059 1063 1103
4 1093 1057 1059 1097
4 1092 1052 1057 1093
4 1091 1051 1052 1092
4 1063 1025 1032 1070
4 1059 1021 1025 1063
4 1057 1018 1021 1059
4 1052 1016 1018 1057
4 1051 1014 1016 1052
4 1025 987 994 1032
4 1021 985 987 1025
4 1018 981 985 1021
4 1016 979 981 1018
4 1014 977 979 1016
4 987 950 955 994
4 985 947 950 987
4 981 941 947 985
4 979 940 941 981
4 977 939 940 979
4 950 913 918 955
4 947 908 913 950
4 941 904 908 947
4 940 901 904 941
4 939 900 901 940
4 913 875 880 918
4 908 869 875 913
4 904 865 869 908
4 901 864 865 904
4 900 859 864 901
4 875 835 841 880
4 869 829 835 875
4 865 823 829 869
4 864 821 823 865
4 859 818 821 864
4 835 796 803 841
4 829 789 796 835
4 823 782 789 829
4 821 781 782 823
4 818 779 781 821
4 796 753 764 803
4 789 750 753 796
4 782 742 750 789
4 781 739 742 782
4 779 738 739 781
4 753 712 721 764
4 750 708 712 753
4 742 703 708 750
4 739 700 703 742
4 738 698 700 739
4 712 671 680 721
4 708 666 671 712
4 703 660 666 708
4 700 656 660 703
4 698 653 656 700
4 671 631 640 680
4 666 623 631 671
4 660 617 623 666
4 656 616 617 660
4 653 614 616 656
4 631 585 595 640
4 623 579 585 631
4 617 573 579 623
4 616 569 573 617
4 614 568 569 616
4 585 544 548 595
4 579 534 544 585
4 573 528 534 579
4 569 522 528 573
4 568 520 522 569
4 544 491 504 548
4 534 486 491 544
4 528 478 486 534
4 522 472 478 528
4 520 467 472 522
4 491 441 455 504
4 486 429 441 491
4 478 417 429 486
4 472 411 417 478
4 467 410 411 472
4 441 379 396 455
4 429 365 379 441
4 417 354 365 429
4 411 347 354 417
4 410 343 347 411
4 379 313 338 396
4 365 303 313 379
4 354 290 303 365
4 347 287 290 354
4 343 280 287 347
4 313 253 272 338
4 303 240 253 313
4 290 230 240 303
4 287 218 230 290
4 280 217 218 287
4 253 209 215 272
4 240 195 209 253
4 230 190 195 240
4 218 188 190 230
4 217 186 188 218
4 209 172 185 215
4 195 167 172 209
4 190 157 167 195
4 188 153 157 190
4 186 150 153 188
4 172 143 156 185
4 167 136 143 172
4 157 127 136 167
4 153 122 127 157
4 150 121 122 153
4 143 113 126 156
4 136 104 113 143
4 127 96 104 136
4 122 92 96 127
4 121 88 92 122
4 113 84 99 126
4 104 82 84 113
4 96 78 82 104
4 92 74 78 96
4 88 72 74 92
4 84 70 80 99
4 82 65 70 84
4 78 63 65 82
4 74 60 63 78
4 72 57 60 74
4 70 61 67 80
4 65 52 61 70
4 63 50 52 65
4 60 47 50 63
4 57 44 47 60
4 61 49 55 67
4 52 41 49 61
4 50 37 41 52
4 47 36 37 50
4 44 34 36 47
4 49 40 45 55
4 41 31 40 49
4 37 29 31 41
4 36 26 29 37
4 34 24 26 36
4 40 30 39 45
4 31 22 30 40
4 29 20 22 31
4 26 18 20 29
4 24 15 18 26
4 30 25 32 39
4 22 19 25 30
4 20 14 19 22
4 18 12 14 20
4 15 9 12 18
4 25 21 28 32
4 19 13 21 25
4 14 8 13 19
4 12 7 8 14
4 9 4 7 12
4 21 17 27 28
4 13 11 17 21
4 8 6 11 13
4 7 3 6 8
4 4 1 3 7
4 17 16 23 27
4 11 10 16 17
4 6 5 10 11
4 3 2 5 6
4 1 0 2 3

CELL_TYPES 3400
9
9
9
9
9
9
9
9
9
9
9
9
9
9
9
9
9
9
9
9
9
9
9
9
9
9
9
9
9
9
9
9
9
9
9
9
9
9
9
9
9
9
9
9
9
9
9
9
9
9
9
9
9
9
9
9
9
9
9
9
9
9
9
9
9
9
9
9
9
9
9
9
9
9
9
9
9
9
9
9
9
9
9
9
9
9
9
9
9
9
9
9
9
9
9
9
9
9
9
9
9
9
9
9
9
9
9
9
9
9
9
9
9
9
9
9
9
9
9
9
9
9
9
9
9
9
9
9
9
9
9
9
9
9
9
9
9
9
9
9
9
9
9
9
9
9
9
9
9
9
9
9
9
9
9
9
9
9
9
9
9
9
9
9
9
9
9
9
9
9
9
9
9
9
9
9
9
9
9
9
9
9
9
9
9
9
9
9
9
9
9
9
9
9
9
9
9
9
9
9
9
9
9
9
9
9
9
9
9
9
9
9
9
9
9
9
9
9
9
9
9
9
9
9
9
9
9
9
9
9
9
9
9
9
9
9
9
9
9
9
9
9
9
9
9
9
9
9
9
9
9
9
9
9
9
9
9
9
9
9
9
9
9
9
9
9
9
9
9
9
9
9
9
9
9
9
9
9
9
9
9
9
9
9
9
9
9
9
9
9
9
9
9
9
9
9
9
9
9
9
9
9
9
9
9
9
9
9
9
9
9
9
9
9
9
9
9
9
9
9
9
9
9
9
9
9
9
9
9
9
9
9
9
9
9
9
9
9
9
9
9
9
9
9
9
9
9
9
9
9
9
9
9
9
9
9
9
9
9
9
9
9
9
9
9
9
9
9
9
9
9
9
9
9
9
9
9
9
9
9
9
9
9
9
9
9
9
9
9
9
9
9
9
9
9
9
9
9
9
9
9
9
9
9
9
9
9
9
9
9
9
9
9
9
9
9
9
9
9
9
9
9
9
9
9
9
9
9
9
9
9
9
9
9
9
9
9
9
9
9
9
9
9
9
9
9
9
9
9
9
9
9
9
9
9
9
9
9
9
9
9
9
9
9
9
9
9
9
9
9
9
9
9
9
9
9
9
9
9
9
9
9
9
9
9
9
9
9
9
9
9
9
9
9
9
9
9
9
9
9
9
9
9
9
9
9
9
9
9
9
9
9
9
9
9
9
9
9
9
9
9
9
9
9
9
9
9
9
9
9
9
9
9
9
9
9
9
9
9
9
9
9
9
9
9
9
9
9
9
9
9
9
9
9
9
9
9
9
9
9
9
9
9
9
9
9
9
9
9
9
9
9
9
9
9
9
9
9
9
9
9
9
9
9
9
9
9
9
9
9
9
9
9
9
9
9
9
9
9
9
9
9
9
9
9
9
9
9
9
9
9
9
9
9
9
9
9
9
9
9
9
9
9
9
9
9
9
9
9
9
9
9
9
9
9
9
9
9
9
9
9
9
9
9
9
9
9
9
9
9
9
9
9
9
9
9
9
9
9
9
9
9
9
9
9
9
9
9
9
9
9
9
9
9
9
9
9
9
9
9
9
9
9
9
9
9
9
9
9
9
9
9
9
9
9
9
9
9
9
9
9
9
9
9
9
9
9
9
9
9
9
9
9
9
9
9
9
9
9
9
9
9
9
9
9
9
9
9
9
9
9
9
9
9
9
9
9
9
9
9
9
9
9
9
9
9
9
9
9
9
9
9
9
9
9
9
9
9
9
9
9
9
9
9
9
9
9
9
9
9
9
9
9
9
9
9
9
9
9
9
9
9
9
9
9
9
9
9
9
9
9
9
9
9
9
9
9
9
9
9
9
9
9
9
9
9
9
9
9
9
9
9
9
9
9
9
9
9
9
9
9
9
9
9
9
9
9
9
9
9
9
9
9
9
9
9
9
9
9
9
9
9
9
9
9
9
9
9
9
9
9
9
9
9
9
9
9
9
9
9
9
9
9
9
9
9
9
9
9
9
9
9
9
9
9
9
9
9
9
9
9
9
9
9
9
9
9
9
9
9
9
9
9
9
9
9
9
9
9
9
9
9
9
9
9
9
9
9
9
9
9
9
9
9
9
9
9
9
9
9
9
9
9
9
9
9
9
9
9
9
9
9
9
9
9
9
9
9
9
9
9
9
9
9
9
9
9
9
9
9
9
9
9
9
9
9
9
9
9
9
9
9
9
9
9
9
9
9
9
9
9
9
9
9
9
9
9
9
9
9
9
9
9
9
9
9
9
9
9
9
9
9
9
9
9
9
9
9
9
9
9
9
9
9
9
9
9
9
9
9
9
9
9
9
9
9
9
9
9
9
9
9
9
9
9
9
9
9
9
9
9
9
9
9
9
9
9
9
9
9
9
9
9
9
9
9
9
9
9
9
9
9
9
9
9
9
9
9
9
9
9
9
9
9
9
9
9
9
9
9
9
9
9
9
9
9
9
9
9
9
9
9
9
9
9
9
9
9
9
9
9
9
9
9
9
9
9
9
9
9
9
9
9
9
9
9
9
9
9
9
9
9
9
9
9
9
9
9
9
9
9
9
9
9
9
9
9
9
9
9
9
9
9
9
9
9
9
9
9
9
9
9
9
9
9
9
9
9
9
9
9
9
9
9
9
9
9
9
9
9
9
9
9
9
9
9
9
9
9
9
9
9
9
9
9
9
9
9
9
9
9
9
9
9
9
9
9
9
9
9
9
9
9
9
9
9
9
9
9
9
9
9
9
9
9
9
9
9
9
9
9
9
9
9
9
9
9
9
9
9
9
9
9
9
9
9
9
9
9
9
9
9
9
9
9
9
9
9
9
9
9
9
9
9
9
9
9
9
9
9
9
9
9
9
9
9
9
9
9
9
9
9
9
9
9
9
9
9
9
9
9
9
9
9
9
9
9
9
9
9
9
9
9
9
9
9
9
9
9
9
9
9
9
9
9
9
9
9
9
9
9
9
9
9
9
9
9
9
9
9
9
9
9
9
9
9
9
9
9
9
9
9
9
9
9
9
9
9
9
9
9
9
9
9
9
9
9
9
9
9
9
9
9
9
9
9
9
9
9
9
9
9
9
9
9
9
9
9
9
9
9
9
9
9
9
9
9
9
9
9
9
9
9
9
9
9
9
9
9
9
9
9
9
9
9
9
9
9
9
9
9
9
9
9
9
9
9
9
9
9
9
9
9
9
9
9
9
9
9
9
9
9
9
9
9
9
9
9
9
9
9
9
9
9
9
9
9
9
9
9
9
9
9
9
9
9
9
9
9
9
9
9
9
9
9
9
9
9
9
9
9
9
9
9
9
9
9
9
9
9
9
9
9
9
9
9
9
9
9
9
9
9
9
9
9
9
9
9
9
9
9
9
9
9
9
9
9
9
9
9
9
9
9
9
9
9
9
9
9
9
9
9
9
9
9
9
9
9
9
9
9
9
9
9
9
9
9
9
9
9
9
9
9
9
9
9
9
9
9
9
9
9
9
9
9
9
9
9
9
9
9
9
9
9
9
9
9
9
9
9
9
9
9
9
9
9
9
9
9
9
9
9
9
9
9
9
9
9
9
9
9
9
9
9
9
9
9
9
9
9
9
9
9
9
9
9
9
9
9
9
9
9
9
9
9
9
9
9
9
9
9
9
9
9
9
9
9
9
9
9
9
9
9
9
9
9
9
9
9
9
9
9
9
9
9
9
9
9
9
9
9
9
9
9
9
9
9
9
9
9
9
9
9
9
9
9
9
9
9
9
9
9
9
9
9
9
9
9
9
9
9
9
9
9
9
9
9
9
9
9
9
9
9
9
9
9
9
9
9
9
9
9
9
9
9
9
9
9
9
9
9
9
9
9
9
9
9
9
9
9
9
9
9
9
9
9
9
9
9
9
9
9
9
9
9
9
9
9
9
9
9
9
9
9
9
9
9
9
9
9
9
9
9
9
9
9
9
9
9
9
9
9
9
9
9
9
9
9
9
9
9
9
9
9
9
9
9
9
9
9
9
9
9
9
9
9
9
9
9
9
9
9
9
9
9
9
9
9
9
9
9
9
9
9
9
9
9
9
9
9
9
9
9
9
9
9
9
9
9
9
9
9
9
9
9
9
9
9
9
9
9
9
9
9
9
9
9
9
9
9
9
9
9
9
9
9
9
9
9
9
9
9
9
9
9
9
9
9
9
9
9
9
9
9
9
9
9
9
9
9
9
9
9
9
9
9
9
9
9
9
9
9
9
9
9
9
9
9
9
9
9
9
9
9
9
9
9
9
9
9
9
9
9
9
9
9
9
9
9
9
9
9
9
9
9
9
9
9
9
9
9
9
9
9
9
9
9
9
9
9
9
9
9
9
9
9
9
9
9
9
9
9
9
9
9
9
9
9
9
9
9
9
9
9
9
9
9
9
9
9
9
9
9
9
9
9
9
9
9
9
9
9
9
9
9
9
9
9
9
9
9
9
9
9
9
9
9
9
9
9
9
9
9
9
9
9
9
9
9
9
9
9
9
9
9
9
9
9
9
9
9
9
9
9
9
9
9
9
9
9
9
9
9
9
9
9
9
9
9
9
9
9
9
9
9
9
9
9
9
9
9
9
9
9
9
9
9
9
9
9
9
9
9
9
9
9
9
9
9
9
9
9
9
9
9
9
9
9
9
9
9
9
9
9
9
9
9
9
9
9
9
9
9
9
9
9
9
9
9
9
9
9
9
9
9
9
9
9
9
9
9
9
9
9
9
9
9
9
9
9
9
9
9
9
9
9
9
9
9
9
9
9
9
9
9
9
9
9
9
9
9
9
9
9
9
9
9
9
9
9
9
9
9
9
9
9
9
9
9
9
9
9
9
9
9
9
9
9
9
9
9
9
9
9
9
9
9
9
9
9
9
9
9
9
9
9
9
9
9
9
9
9
9
9
9
9
9
9
9
9
9
9
9
9
9
9
9
9
9
9
9
9
9
9
9
9
9
9
9
9
9
9
9
9
9
9
9
9
9
9
9
9
9
9
9
9
9
9
9
9
9
9
9
9
9
9
9
9
9
9
9
9
9
9
9
9
9
9
9
9
9
9
9
9
9
9
9
9
9
9
9
9
9
9
9
9
9
9
9
9
9
9
9
9
9
9
9
9
9
9
9
9
9
9
9
9
9
9
9
9
9
9
9
9
9
9
9
9
9
9
9
9
9
9
9
9
9
9
9
9
9
9
9
9
9
9
9
9
9
9
9
9
9
9
9
9
9
9
9
9
9
9
9
9
9
9
9
9
9
9
9
9
9
9
9
9
9
9
9
9
9
9
9
9
9
9
9
9
9
9
9
9
9
9
9
9
9
9
9
9
9
9
9
9
9
9
9
9
9
9
9
9
9
9
9
9
9
9
9
9
9
9
9
9
9
9
9
9
9
9
9
9
9
9
9
9
9
9
9
9
9
9
9
9
9
9
9
9
9
9
9
9
9
9
9
9
9
9
9
9
9
9
9
9
9
9
9
9
9
9
9
9
9
9
9
9
9
9
9
9
9
9
9
9
9
9
9
9
9
9
9
9
9
9
9
9
9
9
9
9
9
9
9
9
9
9
9
9
9
9
9
9
9
9
9
9
9
9
9
9
9
9
9
9
9
9
9
9
9
9
9
9
9
9
9
9
9
9
9
9
9
9
9
9
9
9
9
9
9
9
9
9
9
9
9
9
9
9
9
9
9
9
9
9
9
9
9
9
9
9
9
9
9
9
9
9
9
9
9
9
9
9
9
9
9
9
9
9
9
9
9
9
9
9
9
9
9
9
9
9
9
9
9
9
9
9
9
9
9
9
9
9
9
9
9
9
9
9
9
9
9
9
9
9
9
9
9
9
9
9
9
9
9
9
9
9
9
9
9
9
9
9
9
9
9
9
9
9
9
9
9
9
9
9
9
9
9
9
9
9
9
9
9
9
9
9
9
9
9
9
9
9
9
9
9
9
9
9
9
9
9
9
9
9
9
9
9
9
9
9
9
9
9
9
9
9
9
9
9
9
9
9
9
9
9
9
9
9
9
9
9
9
9
9
9
9
9
9
9
9
9
9
9
9
9
9
9
9
9
9
9
9
9
9
9
9
9
9
9
9
9
9
9
9
9
9
9
9
9
9
9
9
9
9
9
9
9
9
9
9
9
9
9
9
9
9
9
9
9
9
9
9
9
9
9
9
9
9
9
9
9
9
9
9
9
9
9
9
9
9
9
9
9
9
9
9
9
9
9
9
9
9
9
9
9
9
9
9
9
9
9
9
9
9
9
9
9
9
9
9
9
9
9
9
9
9
9
9
9
9
9
9
9
9
9
9
9
9
9
9
9
9
9
9
9
9
9
9
9
9
9
9
9
9
9
9
9
9
9
9
9
9
9
9
9
9
9
9
9
9
9
9
9
9
9
9
9
9
9
9
9
9
9
9
9
9
9
9
9
9
9
9
9
9
9
9
9
9
9
9
9
9
9
9
9
9
9
9
9
9
9
9
9
9
9
9
9
9
9
9
9
9
9
9
9
9
9
9
9
9
9
9
9
9
9
9
9
9
9
9
9
9
9
9
9
9
9
9
9
9
9
9
9
9
9
9
9
9
9
9
9
9
9
9
9
9
9
9
9
9
9
9
9
9
9
9
9
9
9
9
9
9
9
9
9
9
9
9
9
9
9
9
9
9
9
9
9
9
9
9
9
9
9
9
9
9
9
9
9
9
9
9
9
9
9
9
9
9
9
9
9
9
9
9
9
9
9
9
9
9
9
9
9
9
9
9
9
9
9
9
9
9
9
9
9
9
9
9
9
9
9
9
9
9
9
9
9
9
9
9
9
9
9
9
9
9
9
9
9
9
9
9
9
9
9
9
9
9
9
9
9
9
9
9
9
9
9
9
9
9
9
9
9
9
9
9
9
9
9
9
9
9
9
9
9
9
9
9
9
9
9
9
9
9
9
9
9
9
9
9
9
9
9
9
9
9
9
9
9
9
9
9
9
9
9
9
9
9
9
9
9
9
9
9
9
9
9
9
9
9
9
9
9
9
9
9
9
9
9
9
9
9
9
9
9
9
9
9
9
9
9
9
9
9
9
9
9
9
9
9
9
9
9
9
9
9
9
9
9
9
9
9
9
9
9
9
9
9
9
9
9
9
9
9
9
9
9
9
9
9
9
9
9
9
9
9
9
9
9
9
9
9
9
9
9
9
9
9
9
9
9
9
9
9
9
9
9
9
9
9
9
9
9
9
9
9
9
9
9
9
9
9
9
9
9
9
9
9
9
9
9
9
9
9
9
9
9
9
9
9
9
9
9
9
9
9
9
9
9
9
9
9
9
9
9
9
9
9
9
9
9
9
9
9
9
9
9
9
9
9
9
9
9
9
9
9
9
9
9
9
9
9
9
9
9
9
9
9
9
9
9
9
9
9
9
9
9
9
9
9
9
9
9
9
9
9
9
9
9
9
9
9
9
9
9
9
9
9
9
9
9
9
9
9
9
9
9
9
9
9
9
9
9
9
9
9
9
9
9
9
9
9
9
9
9
9
9
9
9
9
9
9
9
9
9
9
9
9
9
9
9
9
9
9
9
9
9
9
9
9
9
9
9
9
9
9
9
9
9
9
9
9
9
9
9
9
9
9
9
9
9
9
9
9
9
9
9
9
9
9
9
9
9
9
9
9
9
9
9
9
9
9
9
9
9
9
9
9
9
9
POINT_DATA 3535
FIELD FieldData 7
DISPLACEMENT 3 3535  float
8.7533538e-02 3.1981446e+00 -1.0410190e+01 
8.7537815e-02 3.1548465e+00 -1.0246440e+01 
1.3082539e-01 3.1981488e+00 -9.9468552e+00 
1.3082518e-01 3.1548462e+00 -9.7839067e+00 
8.7569952e-02 3.1115663e+00 -1.0082294e+01 
1.7413703e-01 3.1981827e+00 -9.4814010e+00 
1.7412358e-01 3.1548442e+00 -9.3193490e+00 
1.3082351e-01 3.1115545e+00 -9.6215927e+00 
1.7410433e-01 3.1115411e+00 -9.1589129e+00 
8.7627399e-02 3.0683515e+00 -9.9179406e+00 
2.1752650e-01 3.1982459e+00 -9.0114228e+00 
2.1750957e-01 3.1548283e+00 -8.8502951e+00 
1.3081104e-01 3.0683398e+00 -9.4601818e+00 
2.1748074e-01 3.1115054e+00 -8.6919875e+00 
1.7405239e-01 3.0683336e+00 -9.0005313e+00 
8.7680945e-02 3.0252363e+00 -9.7538642e+00 
2.6105596e-01 3.1983058e+00 -8.5336430e+00 
2.6104345e-01 3.1547716e+00 -8.3734899e+00 
1.3077320e-01 3.0252332e+00 -9.3000924e+00 
2.1739841e-01 3.0683145e+00 -8.5371228e+00 
1.7395283e-01 3.0252441e+00 -8.8445924e+00 
2.6100966e-01 3.1114332e+00 -8.2182152e+00 
2.1724233e-01 3.0252570e+00 -8.3859416e+00 
3.0477258e-01 3.1983015e+00 -8.0412464e+00 
8.7706159e-02 2.9822331e+00 -9.5905831e+00 
2.6088956e-01 3.0682782e+00 -8.0681632e+00 
1.3069795e-01 2.9822435e+00 -9.1417034e+00 
3.0478338e-01 3.1546387e+00 -7.8843511e+00 
3.0473564e-01 3.1113094e+00 -7.7352470e+00 
1.7379764e-01 2.9822750e+00 -8.6913046e+00 
2.6067094e-01 3.0252731e+00 -7.9229494e+00 
2.1701221e-01 2.9823209e+00 -8.2383511e+00 
3.0456818e-01 3.0682289e+00 -7.5924185e+00 
3.4875235e-01 3.1981841e+00 -7.5235482e+00 
8.7687418e-02 2.9393419e+00 -9.4285311e+00 
3.4876964e-01 3.1543646e+00 -7.3807060e+00 
1.3057652e-01 2.9393680e+00 -8.9852700e+00 
1.7358607e-01 2.9394196e+00 -8.5407068e+00 
3.4872248e-01 3.1111235e+00 -7.2425934e+00 
3.0424895e-01 3.0253114e+00 -7.4549486e+00 
2.6035246e-01 2.9823868e+00 -7.7820674e+00 
2.1671141e-01 2.9394943e+00 -8.0941163e+00 
3.4842907e-01 3.0682043e+00 -7.1098413e+00 
3.9294194e-01 3.1977072e+00 -6.9934821e+00 
8.7616373e-02 2.8965578e+00 -9.2680148e+00 
3.0382955e-01 2.9824819e+00 -7.3221167e+00 
3.9311853e-01 3.1538848e+00 -6.8666003e+00 
1.3040454e-01 2.8966003e+00 -8.8309200e+00 
3.4799658e-01 3.0253883e+00 -6.9821060e+00 
2.5995842e-01 2.9395944e+00 -7.6450112e+00 
1.7331835e-01 2.8966704e+00 -8.3927257e+00 
3.9291551e-01 3.1109252e+00 -6.7423303e+00 
2.1635002e-01 2.8967671e+00 -7.9529469e+00 
3.9253342e-01 3.0682136e+00 -6.6218984e+00 
3.4742179e-01 2.9826405e+00 -6.8587652e+00 
3.0332270e-01 2.9397316e+00 -7.1932550e+00 
4.3776104e-01 3.1969255e+00 -6.4603169e+00 
8.7490325e-02 2.8538757e+00 -9.1092182e+00 
3.9183487e-01 3.0255983e+00 -6.5055665e+00 
4.3757553e-01 3.1531097e+00 -6.3485683e+00 
1.3017962e-01 2.8539345e+00 -8.6786803e+00 
2.5949850e-01 2.8968928e+00 -7.5112971e+00 
4.3757573e-01 3.1106562e+00 -6.2384272e+00 
1.7299682e-01 2.8540213e+00 -8.2472216e+00 
3.4679804e-01 2.9399103e+00 -6.7391532e+00 
2.1593239e-01 2.8541362e+00 -7.8145380e+00 
4.3661544e-01 3.0685410e+00 -6.1312925e+00 
3.0276182e-01 2.8970494e+00 -7.0677623e+00 
3.9111085e-01 2.9828649e+00 -6.3929496e+00 
4.3571818e-01 3.0259178e+00 -6.0273365e+00 
2.5898524e-01 2.8542789e+00 -7.3804827e+00 
4.8216493e-01 3.1949380e+00 -5.9303329e+00 
8.7308760e-02 2.8112919e+00 -8.9522254e+00 
4.8325211e-01 3.1516208e+00 -5.8319043e+00 
1.2990137e-01 2.8113665e+00 -8.5285068e+00 
4.8173887e-01 3.1112053e+00 -5.7352253e+00 
3.4613270e-01 2.8972407e+00 -6.6226519e+00 
3.9036561e-01 2.9401406e+00 -6.2834782e+00 
1.7262210e-01 2.8114691e+00 -8.1040197e+00 
4.3485254e-01 2.9831755e+00 -5.9261976e+00 
3.0215230e-01 2.8544500e+00 -6.9451155e+00 
4.8057990e-01 3.0690343e+00 -5.6414077e+00 
2.1546250e-01 2.8115994e+00 -7.6785933e+00 
4.7957898e-01 3.0263817e+00 -5.5499656e+00 
2.5842124e-01 2.8117569e+00 -7.2521769e+00 
3.8960535e-01 2.8974620e+00 -6.1766018e+00 
4.3401559e-01 2.9404071e+00 -5.8274027e+00 
5.2590600e-01 3.1859704e+00 -5.4097941e+00 
8.7072453e-02 2.7688039e+00 -8.7970469e+00 
3.4543062e-01 2.8546475e+00 -6.5087310e+00 
5.2560549e-01 3.1517550e+00 -5.3211731e+00 
4.4763168e-01 2.6789919e+00 -5.3965928e+00 
1.2956952e-01 2.7688942e+00 -8.3803110e+00 
4.4516457e-01 2.6526018e+00 -5.3176089e+00 
5.2502624e-01 3.1118263e+00 -5.2371487e+00 
3.7066597e-01 2.1839624e+00 -5.3898659e+00 
1.7219485e-01 2.7690121e+00 -7.9629330e+00 
4.4559859e-01 2.6230725e+00 -5.2353734e+00 
3.6971400e-01 2.1650244e+00 -5.3127307e+00 
3.0149665e-01 2.8119399e+00 -6.8248732e+00 
4.7866319e-01 2.9835257e+00 -5.4604080e+00 
3.6884260e-01 2.1438482e+00 -5.2335968e+00 
5.2428163e-01 3.0697190e+00 -5.1558008e+00 
2.9550014e-01 1.6986418e+00 -5.3849343e+00 
2.1494085e-01 2.7691574e+00 -7.5448387e+00 
2.9433294e-01 1.6867122e+00 -5.3088639e+00 
4.4581132e-01 2.5914651e+00 -5.1549621e+00 
4.3317646e-01 2.8977064e+00 -5.7305151e+00 
2.9377795e-01 1.6729204e+00 -5.2311490e+00 
3.6906713e-01 2.1210054e+00 -5.1540178e+00 
3.8881775e-01 2.8548677e+00 -6.0718510e+00 
5.2342809e-01 3.0268777e+00 -5.0761224e+00 
2.2067231e-01 1.2216708e+00 -5.3808641e+00 
2.5780715e-01 2.7693288e+00 -7.1260423e+00 
4.4581482e-01 2.5587884e+00 -5.0756340e+00 
2.1979601e-01 1.2163118e+00 -5.3056051e+00 
4.7777181e-01 2.9406956e+00 -5.3723355e+00 
3.4468719e-01 2.8121461e+00 -6.3969536e+00 
2.9357659e-01 1.6577280e+00 -5.1529181e+00 
3.6929545e-01 2.0970568e+00 -5.0752105e+00 
2.1918311e-01 1.2093022e+00 -5.2289345e+00 
8.6781936e-02 2.7264109e+00 -8.6436440e+00 
1.2918417e-01 2.7265167e+00 -8.2339795e+00 
2.9377133e-01 1.6415070e+00 -5.0746496e+00 
5.2251476e-01 2.9838991e+00 -4.9975244e+00 
1.4635265e-01 7.5212734e-01 -5.3776836e+00 
3.0079287e-01 2.7695246e+00 -6.7066703e+00 
1.7171474e-01 2.7266500e+00 -7.8237764e+00 
2.1897691e-01 1.2010449e+00 -5.1515511e+00 
4.4560418e-01 2.5255334e+00 -4.9972195e+00 
1.4561081e-01 7.5296574e-01 -5.3028938e+00 
4.3231291e-01 2.8551032e+00 -5.6351742e+00 
3.6943375e-01 2.0723721e+00 -4.9970012e+00 
1.4508439e-01 7.5228744e-01 -5.2269166e+00 
4.7686744e-01 2.8979602e+00 -5.2854390e+00 
3.8799248e-01 2.8123711e+00 -5.9688464e+00 
2.1436712e-01 2.7268101e+00 -7.4130284e+00 
2.1900680e-01 1.1918431e+00 -5.0739693e+00 
2.9398960e-01 1.6245237e+00 -4.9967683e+00 
1.4481675e-01 7.5046091e-01 -5.1502231e+00 
5.2156115e-01 2.9409926e+00 -4.9196807e+00 
7.2306693e-02 2.8938638e-01 -5.3751235e+00 
3.4389767e-01 2.7697421e+00 -6.2869681e+00 
2.5714171e-01 2.7269961e+00 -7.0017932e+00 
4.4522315e-01 2.4919255e+00 -4.9194590e+00 
7.1709874e-02 2.9609695e-01 -5.3006716e+00 
3.6942024e-01 2.0471468e+00 -4.9193439e+00 
7.1253399e-02 3.0138252e-01 -5.2251686e+00 
1.4479548e-01 7.4776084e-01 -5.0731662e+00 
2.1920274e-01 1.1819088e+00 -4.9964384e+00 
8.6437663e-02 2.6841125e+00 -8.4919477e+00 
2.9415054e-01 1.6069384e+00 -4.9192553e+00 
4.7593340e-01 2.8553469e+00 -5.1994835e+00 
1.2874520e-01 2.6842339e+00 -8.0893893e+00 
7.0994795e-02 3.0559364e-01 -5.1489706e+00 
4.3141167e-01 2.8126101e+00 -5.5410958e+00 
3.0003848e-01 2.7272062e+00 -6.5902084e+00 
1.7118135e-01 2.6843826e+00 -7.6863756e+00 
-1.5375534e-03 -1.6697103e-01 -5.3731123e+00 
5.2057563e-01 2.8982224e+00 -4.8423898e+00 
3.8712186e-01 2.7699779e+00 -5.8672891e+00 
4.4470978e-01 2.4580687e+00 -4.8422041e+00 
1.4491694e-01 7.4437690e-01 -4.9960271e+00 
-2.0109969e-03 -1.5468335e-01 -5.2988757e+00 
2.1940987e-01 1.1713756e+00 -4.9191362e+00 
7.0920649e-02 3.0899414e-01 -5.0723545e+00 
-2.3892928e-03 -1.4375438e-01 -5.2236952e+00 
2.1374033e-01 2.6845581e+00 -7.2829476e+00 
3.6925804e-01 2.0214828e+00 -4.8421244e+00 
3.4305781e-01 2.7274378e+00 -6.1784950e+00 
-2.6300242e-03 -1.3383722e-01 -5.1478518e+00 
2.9420372e-01 1.5888403e+00 -4.8421024e+00 
2.5642331e-01 2.6847595e+00 -6.8791907e+00 
1.4511693e-01 7.4042855e-01 -4.9189542e+00 
7.0997247e-02 3.1176629e-01 -4.9955481e+00 
4.7495928e-01 2.8128574e+00 -5.1142930e+00 
-7.5258784e-02 -6.1720903e-01 -5.3715745e+00 
5.1955810e-01 2.8555983e+00 -4.7655210e+00 
4.3046428e-01 2.7702278e+00 -5.4480615e+00 
4.4408760e-01 2.4240174e+00 -4.7653426e+00 
-2.7239356e-03 -1.2466857e-01 -5.0715704e+00 
2.1957267e-01 1.1603201e+00 -4.8420851e+00 
-7.5618879e-02 -5.9962586e-01 -5.2974691e+00 
3.6896209e-01 1.9954399e+00 -4.7652672e+00 
-7.5922686e-02 -5.8335076e-01 -5.2224893e+00 
2.9923097e-01 2.6849852e+00 -6.4752464e+00 
8.6039784e-02 2.6419088e+00 -8.3418727e+00 
3.8620049e-01 2.7276881e+00 -5.7669467e+00 
1.2825251e-01 2.6420458e+00 -7.9464167e+00 
7.1163769e-02 3.1402382e-01 -4.9187175e+00 
1.7059412e-01 2.6422101e+00 -7.5505721e+00 
2.9414002e-01 1.5702819e+00 -4.7652632e+00 
-7.6136950e-02 -5.6802623e-01 -5.1468844e+00 
1.4532057e-01 7.3598345e-01 -4.8420420e+00 
-2.6881338e-03 -1.1606684e-01 -4.9950497e+00 
2.1305948e-01 2.6424015e+00 -7.1544113e+00 
-7.6241502e-02 -5.5338197e-01 -5.0708490e+00 
2.1965730e-01 1.1487854e+00 -4.7652912e+00 
3.4216431e-01 2.6852330e+00 -6.0713135e+00 
-1.4891727e-01 -1.0614666e+00 -5.3704739e+00 
5.1850443e-01 2.8131133e+00 -4.6889874e+00 
4.7393878e-01 2.7704875e+00 -5.0297376e+00 
4.4337305e-01 2.3898063e+00 -4.6888007e+00 
-1.4917049e-01 -1.0388722e+00 -5.2964203e+00 
-1.4940758e-01 -1.0175431e+00 -5.2215377e+00 
-2.5500780e-03 -1.0792064e-01 -4.9184381e+00 
7.1375936e-02 3.1582895e-01 -4.8419589e+00 
4.2946540e-01 2.7279538e+00 -5.3559050e+00 
3.6854807e-01 1.9690612e+00 -4.6887116e+00 
2.5565043e-01 2.6426190e+00 -6.7580370e+00 
-7.6233353e-02 -5.3923470e-01 -4.9945557e+00 
1.4549150e-01 7.3107649e-01 -4.7653197e+00 
2.9396282e-01 1.5513002e+00 -4.6887011e+00 
-1.4959632e-01 -9.9709548e-01 -5.1460699e+00 
3.8522461e-01 2.6855004e+00 -5.6676394e+00 
2.9836829e-01 2.6428613e+00 -6.3615901e+00 
-8.8001444e-02 -3.1944945e+00 -9.2495873e+00 
8.5588399e-02 2.5998002e+00 -8.1933279e+00 
1.2770593e-01 2.5999527e+00 -7.8049441e+00 
-1.3079432e-01 -3.1944982e+00 -8.8729164e+00 
-8.8005067e-02 -3.1517021e+00 -9.1549610e+00 
-1.4971195e-01 -9.7724633e-01 -5.0702003e+00 
2.1965331e-01 1.1367988e+00 -4.6887391e+00 
-2.3446470e-03 -1.0017210e-01 -4.8418405e+00 
-1.3079242e-01 -3.1517003e+00 -8.7787341e+00 
-7.6120340e-02 -5.2547598e-01 -4.9181398e+00 
-1.7360825e-01 -3.1945195e+00 -8.4954971e+00 
-8.8025599e-02 -3.1089296e+00 -9.0597190e+00 
-2.2255856e-01 -1.4997732e+00 -5.3697824e+00 
5.1740878e-01 2.7707564e+00 -4.6127313e+00 
1.6995255e-01 2.6001328e+00 -7.4162248e+00 
7.1593191e-02 3.1720985e-01 -4.7653318e+00 
4.4257616e-01 2.3554619e+00 -4.6125274e+00 
-1.3078501e-01 -3.1089223e+00 -8.6842667e+00 
-1.7359980e-01 -3.1516930e+00 -8.4020305e+00 
-2.2271975e-01 -1.4724721e+00 -5.2957134e+00 
4.7286690e-01 2.7282307e+00 -4.9457218e+00 
-2.2289335e-01 -1.4463916e+00 -5.2208190e+00 
-1.7358397e-01 -3.1089105e+00 -8.3085221e+00 
3.6803003e-01 1.9423827e+00 -4.6124157e+00 
2.1232369e-01 2.6003404e+00 -7.0272624e+00 
-2.1648240e-01 -3.1945483e+00 -8.1167061e+00 
-8.8052569e-02 -3.0662111e+00 -8.9634467e+00 
3.4121464e-01 2.6431267e+00 -5.9652502e+00 
-1.4972365e-01 -9.5781204e-01 -4.9940865e+00 
-1.3076086e-01 -3.0662080e+00 -8.5890927e+00 
-2.1647662e-01 -3.1516673e+00 -8.0242171e+00 
1.4560764e-01 7.2572539e-01 -4.6887995e+00 
4.2841113e-01 2.6857845e+00 -5.2645006e+00 
2.9368059e-01 1.5319269e+00 -4.6123853e+00 
-1.7353815e-01 -3.0662050e+00 -8.2145775e+00 
-2.1646113e-01 -3.1088752e+00 -7.9318872e+00 
-2.2308023e-01 -1.4211036e+00 -5.1453895e+00 
2.5482178e-01 2.6005745e+00 -6.6381695e+00 
-2.5944739e-01 -3.1945545e+00 -7.7359577e+00 
-8.8060389e-02 -3.0235659e+00 -8.8658557e+00 
-7.5922116e-02 -5.1205380e-01 -4.8416957e+00 
-2.1013829e-03 -9.2799294e-02 -4.7653210e+00 
-1.3070699e-01 -3.0235737e+00 -8.4928981e+00 
-2.5945211e-01 -3.1516040e+00 -7.6446937e+00 
-2.1640569e-01 -3.0661843e+00 -7.8393433e+00 
-1.7344998e-01 -3.0235870e+00 -8.1198775e+00 
-2.2320392e-01 -1.3963095e+00 -5.0696260e+00 
-2.5944334e-01 -3.1088034e+00 -7.5537714e+00 
2.1955983e-01 1.1243822e+00 -4.6124142e+00 
-1.4962921e-01 -9.3869143e-01 -4.9178379e+00 
7.1791331e-02 3.1817567e-01 -4.6888633e+00 
3.8419138e-01 2.6434128e+00 -5.5692286e+00 
-3.0251872e-01 -3.1945007e+00 -7.3526552e+00 
-8.8029288e-02 -2.9809972e+00 -8.7667366e+00 
-2.9626645e-01 -1.9320548e+00 -5.3695457e+00 
5.1626500e-01 2.7285178e+00 -4.5367161e+00 
2.9744876e-01 2.6008343e+00 -6.2490839e+00 
-2.1629469e-01 -3.0235923e+00 -7.7462713e+00 
-2.5938234e-01 -3.0661369e+00 -7.4628257e+00 
4.4170318e-01 2.3210067e+00 -4.5364899e+00 
-1.3061217e-01 -2.9810199e+00 -8.3954543e+00 
-2.9629905e-01 -1.9003941e+00 -5.2953332e+00 
-3.0254461e-01 -3.1514793e+00 -7.2628613e+00 
-2.2323839e-01 -1.3718327e+00 -4.9936471e+00 
8.5083612e-02 2.5577868e+00 -8.0462222e+00 
-2.9646287e-01 -1.8698906e+00 -5.2202891e+00 
1.4565990e-01 7.1994142e-01 -4.6124809e+00 
4.7173950e-01 2.6860815e+00 -4.8621766e+00 
-3.0254572e-01 -3.1086808e+00 -7.1735846e+00 
-1.7331125e-01 -2.9810528e+00 -8.0241813e+00 
3.6741902e-01 1.9154374e+00 -4.5363512e+00 
1.2710538e-01 2.5579550e+00 -7.6648634e+00 
-2.5925346e-01 -3.0235840e+00 -7.3715452e+00 
-7.5661186e-02 -4.9895353e-01 -4.7652910e+00 
1.6925625e-01 2.5581510e+00 -7.2832108e+00 
-2.1612205e-01 -2.9810873e+00 -7.6524261e+00 
-1.8453635e-03 -8.5800901e-02 -4.6889208e+00 
-3.0248237e-01 -3.0660564e+00 -7.0844551e+00 
-2.9663896e-01 -1.8400498e+00 -5.1448234e+00 
2.9330279e-01 1.5121924e+00 -4.5362944e+00 
-1.4943315e-01 -9.1984236e-01 -4.8415399e+00 
3.4020684e-01 2.6011180e+00 -5.8601689e+00 
-3.4570914e-01 -3.1943518e+00 -6.9661725e+00 
-8.7946571e-02 -2.9384996e+00 -8.6659466e+00 
4.2729842e-01 2.6437170e+00 -5.1737535e+00 
-1.3046825e-01 -2.9385394e+00 -8.2966021e+00 
-3.4575902e-01 -3.1512611e+00 -6.8781005e+00 
2.1153222e-01 2.5583749e+00 -6.9013690e+00 
-2.2315012e-01 -1.3475878e+00 -4.9175498e+00 
-1.7311788e-01 -2.9385924e+00 -7.9273183e+00 
-3.4578042e-01 -3.1084919e+00 -6.7907224e+00 
7.1955150e-02 3.1872773e-01 -4.6125679e+00 
-2.5904949e-01 -2.9811208e+00 -7.2796840e+00 
-3.0233143e-01 -3.0235619e+00 -6.9951562e+00 
-2.9680646e-01 -1.8105653e+00 -5.0690990e+00 
2.1938089e-01 1.1115572e+00 -4.5363034e+00 
-2.1588576e-01 -2.9386550e+00 -7.5576314e+00 
2.5393630e-01 2.5586261e+00 -6.5194554e+00 
-3.4570211e-01 -3.0659436e+00 -6.7036495e+00 
-3.7000526e-01 -2.3581335e+00 -5.3697395e+00 
5.1506727e-01 2.6863899e+00 -4.4609191e+00 
-7.5359443e-02 -4.8618154e-01 -4.6889699e+00 
-3.7006181e-01 -2.3225371e+00 -5.2952762e+00 
-3.8899133e-01 -3.1940268e+00 -6.5758397e+00 
-8.7805998e-02 -2.8960652e+00 -8.5633998e+00 
-1.4915354e-01 -9.0125955e-01 -4.7652501e+00 
4.4075773e-01 2.2864609e+00 -4.4606678e+00 
3.8309859e-01 2.6014236e+00 -5.4716077e+00 
1.4564591e-01 7.1373548e-01 -4.5363611e+00 
-3.0209806e-01 -2.9811529e+00 -6.9054393e+00 
-1.3027067e-01 -2.8961225e+00 -8.1962422e+00 
-2.9684444e-01 -1.7812852e+00 -4.9932495e+00 
-3.8911036e-01 -3.1509149e+00 -6.4897536e+00 
3.6672351e-01 1.8882559e+00 -4.4605003e+00 
-2.5877430e-01 -2.9387251e+00 -7.1870643e+00 
-3.7011709e-01 -2.2879765e+00 -5.2199196e+00 
-3.4553264e-01 -3.0235255e+00 -6.6165488e+00 
-3.8912205e-01 -3.1082336e+00 -6.4045501e+00 
-1.5939679e-03 -7.9184423e-02 -4.6126639e+00 
-1.7286789e-01 -2.8961951e+00 -7.8291795e+00 
-2.2294627e-01 -1.3235481e+00 -4.8413872e+00 
4.7055290e-01 2.6440356e+00 -4.7790521e+00 
2.9647105e-01 2.5589037e+00 -6.1376035e+00 
-3.7042197e-01 -2.2538695e+00 -5.1442687e+00 
2.9283818e-01 1.4921267e+00 -4.4604142e+00 
-2.1558770e-01 -2.8962821e+00 -7.4617731e+00 
-3.8904921e-01 -3.0657894e+00 -6.3198052e+00 
8.4525632e-02 2.5158695e+00 -7.9004697e+00 
-3.0178381e-01 -2.9388044e+00 -6.8151283e+00 
-3.4526203e-01 -2.9811901e+00 -6.5291641e+00 
-2.9674689e-01 -1.7521527e+00 -4.9172883e+00 
1.2645085e-01 2.5160532e+00 -7.5260774e+00 
7.2077002e-02 3.1886659e-01 -4.5364525e+00 
-4.3245641e-01 -3.1935342e+00 -6.1809331e+00 
-8.7606361e-02 -2.8536867e+00 -8.4590592e+00 
-3.7058579e-01 -2.2199441e+00 -5.0686300e+00 
2.1912236e-01 1.0983468e+00 -4.4603978e+00 
4.2612469e-01 2.6017488e+00 -5.0835928e+00 
1.6850494e-01 2.5162652e+00 -7.1514241e+00 
-2.5843090e-01 -2.8963830e+00 -7.0935721e+00 
-3.8883144e-01 -3.0234939e+00 -6.2351502e+00 
-1.3001753e-01 -2.8537611e+00 -8.0943259e+00 
-4.3251317e-01 -3.1504058e+00 -6.0971063e+00 
3.3913931e-01 2.5592062e+00 -5.7559628e+00 
-1.4880994e-01 -8.8295737e-01 -4.6890142e+00 
-1.7256125e-01 -2.8538519e+00 -7.7297080e+00 
-4.3261829e-01 -3.1078615e+00 -6.0143852e+00 
-2.2264150e-01 -1.2997202e+00 -4.7652102e+00 
-7.5035223e-02 -4.7375308e-01 -4.6127638e+00 
2.1068452e-01 2.5165056e+00 -6.7766209e+00 
-3.4491337e-01 -2.9388929e+00 -6.4413231e+00 
1.4556718e-01 7.0712096e-01 -4.4604380e+00 
-4.4418051e-01 -2.7777202e+00 -5.3706416e+00 
5.1381037e-01 2.6443672e+00 -4.3853281e+00 
-2.1522946e-01 -2.8539601e+00 -7.3647904e+00 
-3.7060059e-01 -2.1861061e+00 -4.9928996e+00 
-4.3244221e-01 -3.0656535e+00 -5.9322850e+00 
4.3974175e-01 2.2518426e+00 -4.3850504e+00 
-3.8853180e-01 -2.9812319e+00 -6.1503142e+00 
-1.3586550e-03 -7.2958419e-02 -4.5365662e+00 
-3.0139902e-01 -2.8964974e+00 -6.7241145e+00 
-2.9652024e-01 -1.7231619e+00 -4.8412541e+00 
-4.4382409e-01 -2.7387676e+00 -5.2955979e+00 
2.5299318e-01 2.5167740e+00 -6.4017866e+00 
3.6594979e-01 1.8608671e+00 -4.3848536e+00 
-4.4425436e-01 -2.7005236e+00 -5.2194133e+00 
3.8194434e-01 2.5595319e+00 -5.3746948e+00 
-4.3219620e-01 -3.0234600e+00 -5.8503589e+00 
-2.5802420e-01 -2.8540853e+00 -6.9991476e+00 
-4.7577676e-01 -3.1926299e+00 -5.7806921e+00 
-8.7349348e-02 -2.8113593e+00 -8.3529289e+00 
4.6930382e-01 2.6020900e+00 -4.6963129e+00 
-4.4449274e-01 -2.6624048e+00 -5.1437765e+00 
-4.7626299e-01 -3.1495785e+00 -5.6993519e+00 
-1.2970900e-01 -2.8114500e+00 -7.9908467e+00 
2.9229426e-01 1.4717593e+00 -4.3847373e+00 
-3.7046814e-01 -2.1523380e+00 -4.9170719e+00 
7.2153981e-02 3.1859585e-01 -4.4605219e+00 
-3.4449286e-01 -2.8966250e+00 -6.3529280e+00 
-4.7602879e-01 -3.1075764e+00 -5.6194839e+00 
2.9543408e-01 2.5170696e+00 -6.0270498e+00 
-3.8815698e-01 -2.9389917e+00 -6.0651335e+00 
-1.7219843e-01 -2.8115577e+00 -7.6288896e+00 
-2.2225412e-01 -1.2761259e+00 -4.6890611e+00 
-1.4842009e-01 -8.6495759e-01 -4.6128671e+00 
-7.4701844e-02 -4.6168419e-01 -4.5366952e+00 
2.1879043e-01 1.0847756e+00 -4.3846932e+00 
-4.3188211e-01 -2.9812813e+00 -5.7683200e+00 
-3.0094814e-01 -2.8542268e+00 -6.6323443e+00 
-2.9618093e-01 -1.6943313e+00 -4.7651840e+00 
-4.4457074e-01 -2.6242926e+00 -5.0682216e+00 
-2.1481300e-01 -2.8116841e+00 -7.2666656e+00 
-4.7581429e-01 -3.0655003e+00 -5.5404004e+00 
4.2488765e-01 2.5598785e+00 -4.9939652e+00 
8.3914786e-02 2.4740490e+00 -7.7559910e+00 
1.2574241e-01 2.4742481e+00 -7.3885005e+00 
3.3801070e-01 2.5173912e+00 -5.6525485e+00 
-3.7020388e-01 -2.1186549e+00 -4.8411551e+00 
-4.7557675e-01 -3.0234277e+00 -5.4615223e+00 
-1.1458454e-03 -6.7128036e-02 -4.4606390e+00 
-2.5755660e-01 -2.8118291e+00 -6.9037736e+00 
1.6769845e-01 2.4744760e+00 -7.0207745e+00 
1.4542713e-01 7.0011461e-01 -4.3847112e+00 
-3.8771439e-01 -2.8967620e+00 -5.9795291e+00 
-4.4450876e-01 -2.5861729e+00 -4.9926233e+00 
-5.1983342e-01 -3.1905436e+00 -5.3744022e+00 
-8.7038151e-02 -2.7690810e+00 -8.2450462e+00 
5.1248976e-01 2.6024458e+00 -4.3099381e+00 
-4.3150765e-01 -2.9390923e+00 -5.6860258e+00 
-3.4400564e-01 -2.8543823e+00 -6.2639374e+00 
-5.1922241e-01 -3.1490019e+00 -5.2955318e+00 
-1.2934621e-01 -2.7691871e+00 -7.8858318e+00 
4.3865615e-01 2.2171685e+00 -4.3096334e+00 
2.0978017e-01 2.4747330e+00 -6.6529269e+00 
3.6510249e-01 1.8332976e+00 -4.3094075e+00 
-5.1903356e-01 -3.1072411e+00 -5.2190089e+00 
-1.7178031e-01 -2.7693106e+00 -7.5267444e+00 
-2.2180081e-01 -1.2527920e+00 -4.6129774e+00 
-4.7530813e-01 -2.9813147e+00 -5.3825730e+00 
-3.0043413e-01 -2.8119915e+00 -6.5398056e+00 
-2.9574552e-01 -1.6656888e+00 -4.6891196e+00 
-1.4799804e-01 -8.4728175e-01 -4.5368367e+00 
-5.1890258e-01 -3.0653393e+00 -5.1433403e+00 
-4.4432009e-01 -2.5480624e+00 -4.9169149e+00 
2.9167724e-01 1.4511193e+00 -4.3092614e+00 
2.5199175e-01 2.4750187e+00 -6.2850757e+00 
-2.1433933e-01 -2.7694533e+00 -7.1674142e+00 
7.2186255e-02 3.1792366e-01 -4.3847806e+00 
3.8072701e-01 2.5177372e+00 -5.2784272e+00 
4.6798934e-01 2.5602429e+00 -4.6139349e+00 
-7.4368154e-02 -4.4998700e-01 -4.4607818e+00 
-3.6982253e-01 -2.0850838e+00 -4.7651836e+00 
-4.3106703e-01 -2.8969009e+00 -5.6034234e+00 
-3.8720382e-01 -2.8545479e+00 -5.8934770e+00 
2.1839100e-01 1.0708696e+00 -4.3091891e+00 
-5.1880538e-01 -3.0233513e+00 -5.0678964e+00 
-2.5702944e-01 -2.7696153e+00 -6.8074650e+00 
-4.7498415e-01 -2.9391776e+00 -5.3034429e+00 
-3.4345270e-01 -2.8121688e+00 -6.1743485e+00 
2.9433695e-01 2.4753324e+00 -5.9173443e+00 
-8.6676154e-02 -2.7268528e+00 -8.1354744e+00 
-4.4401263e-01 -2.5099867e+00 -4.8411022e+00 
-9.5836694e-04 -6.1693031e-02 -4.3848920e+00 
-1.2893072e-01 -2.7269735e+00 -7.7793346e+00 
4.2358530e-01 2.5181055e+00 -4.9048315e+00 
-2.9985766e-01 -2.7697951e+00 -6.4465159e+00 
-5.1867173e-01 -2.9813075e+00 -4.9924126e+00 
-1.7130765e-01 -2.7271120e+00 -7.4233179e+00 
-2.9522829e-01 -1.6372631e+00 -4.6130998e+00 
-2.2129492e-01 -1.2297430e+00 -4.5369911e+00 
1.4523000e-01 6.9273635e-01 -4.3091827e+00 
8.3251522e-02 2.4323263e+00 -7.6127151e+00 
-4.3055330e-01 -2.8547156e+00 -5.5205099e+00 
-1.4755371e-01 -8.2994684e-01 -4.4609458e+00 
5.1110156e-01 2.5606234e+00 -4.2347494e+00 
3.3681987e-01 2.4756733e+00 -5.5498610e+00 
1.2498025e-01 2.4325408e+00 -7.2520585e+00 
-3.6933614e-01 -2.0516542e+00 -4.6891978e+00 
-4.7458473e-01 -2.8970256e+00 -5.2241085e+00 
-2.1380893e-01 -2.7272699e+00 -7.0670767e+00 
-3.8662323e-01 -2.8123564e+00 -5.8069868e+00 
4.3750121e-01 2.1824534e+00 -4.2344173e+00 
1.6683672e-01 2.4327846e+00 -6.8911860e+00 
3.6418498e-01 1.8055722e+00 -4.2341631e+00 
-5.1845995e-01 -2.9392257e+00 -4.9168096e+00 
-3.4283337e-01 -2.7699903e+00 -6.0841837e+00 
7.2175789e-02 3.1686286e-01 -4.3092338e+00 
-7.4039217e-02 -4.3866767e-01 -4.3850380e+00 
-2.5644285e-01 -2.7274473e+00 -6.7102593e+00 
-4.4358960e-01 -2.4719726e+00 -4.7652168e+00 
2.0881887e-01 2.4330580e+00 -6.5302119e+00 
2.9099214e-01 1.4302345e+00 -4.2339881e+00 
4.6660693e-01 2.5184933e+00 -4.5319017e+00 
3.7944517e-01 2.4760398e+00 -5.1827571e+00 
-8.6266367e-02 -2.6846777e+00 -8.0242964e+00 
2.5093147e-01 2.4333611e+00 -6.1692521e+00 
2.1792932e-01 1.0566552e+00 -4.2338880e+00 
-1.2846402e-01 -2.6848123e+00 -7.6714278e+00 
-4.7409606e-01 -2.8548738e+00 -5.1445871e+00 
-4.2996032e-01 -2.8125483e+00 -5.4373083e+00 
-2.9921823e-01 -2.7276429e+00 -6.3525117e+00 
-2.9464071e-01 -1.6090792e+00 -4.5371606e+00 
-2.2074633e-01 -1.2069984e+00 -4.4611294e+00 
-3.6875476e-01 -2.0183930e+00 -4.6132399e+00 
-1.7078107e-01 -2.6849653e+00 -7.3186744e+00 
-3.8596982e-01 -2.7701971e+00 -5.7200874e+00 
-5.1814191e-01 -2.8971225e+00 -4.8410873e+00 
-7.9655932e-04 -5.6647383e-02 -4.3093341e+00 
2.9317888e-01 2.4336931e+00 -5.8084246e+00 
-2.1322184e-01 -2.6851380e+00 -6.9657107e+00 
1.4498020e-01 6.8500854e-01 -4.2338570e+00 
-1.4709350e-01 -8.1296339e-01 -4.3852135e+00 
-4.4305434e-01 -2.4340453e+00 -4.6893020e+00 
-3.4214610e-01 -2.7278545e+00 -5.9934806e+00 
4.2221585e-01 2.4764299e+00 -4.8161630e+00 
5.0964254e-01 2.5188991e+00 -4.1597658e+00 
-2.5579631e-01 -2.6853303e+00 -6.6122093e+00 
4.3627683e-01 2.1477111e+00 -4.1594066e+00 
-4.7350920e-01 -2.8127361e+00 -5.0649135e+00 
3.6319972e-01 1.7777136e+00 -4.1591247e+00 
-5.1770195e-01 -2.8550140e+00 -4.7652793e+00 
-4.2928333e-01 -2.7704107e+00 -5.3538541e+00 
-7.3717309e-02 -4.2772585e-01 -4.3094767e+00 
3.3556580e-01 2.4340533e+00 -5.4478498e+00 
8.2536388e-02 2.3907028e+00 -7.4705792e+00 
7.2125513e-02 3.1543030e-01 -4.2338881e+00 
1.2416463e-01 2.3909325e+00 -7.1166874e+00 
2.9024298e-01 1.4091318e+00 -4.1589220e+00 
-8.5811045e-02 -2.6425602e+00 -7.9116088e+00 
-2.9851473e-01 -2.6855412e+00 -6.2578424e+00 
-2.9399140e-01 -1.5811562e+00 -4.4613328e+00 
-3.6808654e-01 -1.9853227e+00 -4.5373484e+00 
1.6591976e-01 2.3911921e+00 -6.7625949e+00 
-1.2794732e-01 -2.6427082e+00 -7.5621975e+00 
-3.8524089e-01 -2.7280791e+00 -5.6328179e+00 
-1.7020094e-01 -2.6428756e+00 -7.2128909e+00 
-2.2016178e-01 -1.1845708e+00 -4.3854156e+00 
-4.4241056e-01 -2.3962263e+00 -4.6134018e+00 
2.0780040e-01 2.3914821e+00 -6.4084146e+00 
4.6515435e-01 2.4768413e+00 -4.4502036e+00 
2.1740995e-01 1.0421591e+00 -4.1587953e+00 
3.7809752e-01 2.4344402e+00 -5.0876484e+00 
-2.1257779e-01 -2.6430630e+00 -6.8633855e+00 
-6.5919084e-04 -5.1979852e-02 -4.2339744e+00 
-3.4138909e-01 -2.6857690e+00 -5.9022856e+00 
-1.4662101e-01 -7.9633511e-01 -4.3096564e+00 
-5.1713313e-01 -2.8129159e+00 -4.6894304e+00 
-4.7281944e-01 -2.7706262e+00 -4.9851284e+00 
2.4981190e-01 2.3918024e+00 -6.0542592e+00 
-2.5508904e-01 -2.6432704e+00 -6.5133774e+00 
1.4468198e-01 6.7695519e-01 -4.1587402e+00 
-4.2851917e-01 -2.7283138e+00 -5.2701873e+00 
2.9195920e-01 2.3921527e+00 -5.7002419e+00 
-3.6733818e-01 -1.9524600e+00 -4.4615575e+00 
4.2077772e-01 2.4348524e+00 -4.7279391e+00 
5.0810996e-01 2.4772725e+00 -4.0849939e+00 
-3.8443424e-01 -2.6860117e+00 -5.5452221e+00 
-7.3402761e-02 -4.1715522e-01 -4.2341097e+00 
4.3498275e-01 2.1129541e+00 -4.0846078e+00 
-2.9774584e-01 -2.6434969e+00 -6.1625644e+00 
-2.9328667e-01 -1.5535070e+00 -4.3856432e+00 
-4.4166263e-01 -2.3585331e+00 -4.5375577e+00 
-8.5311647e-02 -2.6005057e+00 -7.7975174e+00 
7.2038759e-02 3.1364594e-01 -4.1587512e+00 
-1.2738144e-01 -2.6006669e+00 -7.4517387e+00 
3.6214851e-01 1.7497424e+00 -4.0842993e+00 
-2.1954552e-01 -1.1624663e+00 -4.3098696e+00 
-5.1643441e-01 -2.7708425e+00 -4.6135868e+00 
-1.6956744e-01 -2.6008486e+00 -7.1060528e+00 
3.3424759e-01 2.3925322e+00 -5.3464762e+00 
2.8943297e-01 1.3878361e+00 -4.0840701e+00 
-4.7202507e-01 -2.7285560e+00 -4.9052728e+00 
8.1770014e-02 2.3491801e+00 -7.3295290e+00 
1.2329591e-01 2.3494249e+00 -6.9823333e+00 
-3.4056070e-01 -2.6437415e+00 -5.8106496e+00 
-2.1187638e-01 -2.6010510e+00 -6.7601775e+00 
-4.2766607e-01 -2.6862676e+00 -5.1863491e+00 
1.6494768e-01 2.3497002e+00 -6.6349484e+00 
-5.4412649e-04 -4.7674975e-02 -4.1588224e+00 
4.6362970e-01 2.4352874e+00 -4.3688353e+00 
2.1683678e-01 1.0274076e+00 -4.0839182e+00 
-1.4613779e-01 -7.8005948e-01 -4.2342890e+00 
-2.5432015e-01 -2.6012739e+00 -6.4138318e+00 
2.0672463e-01 2.3500067e+00 -6.2874848e+00 
3.7668294e-01 2.3929398e+00 -4.9930743e+00 
-3.6651501e-01 -1.9198163e+00 -4.3858967e+00 
-4.4081526e-01 -2.3209790e+00 -4.4618059e+00 
1.4433923e-01 6.6860110e-01 -4.0838402e+00 
-3.8354830e-01 -2.6440029e+00 -5.4573456e+00 
2.4863269e-01 2.3503443e+00 -5.9400519e+00 
-2.9691037e-01 -2.6015167e+00 -6.0667382e+00 
-2.9253084e-01 -1.5261383e+00 -4.3101146e+00 
-5.1560844e-01 -2.7288066e+00 -4.5377913e+00 
-7.3094667e-02 -4.0694453e-01 -4.1589485e+00 
-8.4768909e-02 -2.5585199e+00 -7.6821330e+00 
-4.7112644e-01 -2.6865360e+00 -4.8253854e+00 
-1.2676680e-01 -2.5586943e+00 -7.3401515e+00 
5.0650157e-01 2.4357440e+00 -4.0104422e+00 
-2.1889991e-01 -1.1406849e+00 -4.2345086e+00 
2.9067734e-01 2.3507129e+00 -5.5927580e+00 
4.3361859e-01 2.0781936e+00 -4.0100295e+00 
-1.6888057e-01 -2.5588904e+00 -6.9982498e+00 
7.1918910e-02 3.1153178e-01 -4.0838316e+00 
4.1926949e-01 2.3933739e+00 -4.6401458e+00 
-3.3965964e-01 -2.6017790e+00 -5.7186257e+00 
3.6103267e-01 1.7216779e+00 -4.0096952e+00 
-4.2672339e-01 -2.6442805e+00 -5.1023797e+00 
-2.1111721e-01 -2.5591080e+00 -6.6561668e+00 
2.8856468e-01 1.3663710e+00 -4.0094410e+00 
3.3286443e-01 2.3511118e+00 -5.2457106e+00 
-1.4564403e-01 -7.6412876e-01 -4.1591248e+00 
-2.5348887e-01 -2.5593471e+00 -6.3136435e+00 
-4.4880209e-04 -4.3714195e-02 -4.0838877e+00 
-4.3987309e-01 -2.2835736e+00 -4.3861778e+00 
-5.1465988e-01 -2.6868191e+00 -4.4620817e+00 
2.1621308e-01 1.0124258e+00 -4.0092653e+00 
-3.6562127e-01 -1.8873982e+00 -4.3103910e+00 
-3.8258215e-01 -2.6020601e+00 -5.3692338e+00 
8.0953084e-02 2.3077603e+00 -7.1895175e+00 
4.6203133e-01 2.3938327e+00 -4.2877953e+00 
1.2237449e-01 2.3080200e+00 -6.8489505e+00 
1.6392063e-01 2.3083109e+00 -6.5082030e+00 
-2.9172679e-01 -1.4990516e+00 -4.2347664e+00 
-4.7012522e-01 -2.6445751e+00 -4.7455016e+00 
-2.9600734e-01 -2.5596071e+00 -5.9704258e+00 
1.4395540e-01 6.5997121e-01 -4.0091658e+00 
3.7520039e-01 2.3515400e+00 -4.8990152e+00 
2.0559150e-01 2.3086338e+00 -6.1673825e+00 
-8.4182992e-02 -2.5166086e+00 -7.5655690e+00 
-7.2791407e-02 -3.9707878e-01 -4.0840040e+00 
-1.2610355e-01 -2.5167964e+00 -7.2275381e+00 
-1.6814023e-01 -2.5170070e+00 -6.8895739e+00 
-4.2569131e-01 -2.6023602e+00 -5.0183176e+00 
-2.1822603e-01 -1.1192215e+00 -4.1593480e+00 
-3.3868502e-01 -2.5598880e+00 -5.6262670e+00 
2.4739355e-01 2.3089887e+00 -5.8265945e+00 
7.1769182e-02 3.0911099e-01 -4.0091388e+00 
-2.1029987e-01 -2.5172403e+00 -6.5514351e+00 
5.0481551e-01 2.3943149e+00 -3.9361206e+00 
4.3218393e-01 2.0434402e+00 -3.9356818e+00 
4.1768995e-01 2.3519962e+00 -4.5527740e+00 
-5.1359425e-01 -2.6448892e+00 -4.3864907e+00 
-4.3884047e-01 -2.2463234e+00 -4.3107001e+00 
3.5985315e-01 1.6935373e+00 -3.9353225e+00 
2.8933281e-01 2.3093756e+00 -5.4859432e+00 
-2.5259460e-01 -2.5174960e+00 -6.2128843e+00 
-3.6466023e-01 -1.8552081e+00 -4.2350617e+00 
-3.8153541e-01 -2.5601898e+00 -5.2809313e+00 
-1.4513903e-01 -7.4853122e-01 -4.0841764e+00 
2.8764013e-01 1.3447584e+00 -3.9350444e+00 
-3.7054095e-04 -4.0076954e-02 -4.0091806e+00 
-4.6902382e-01 -2.6026809e+00 -4.6656534e+00 
-2.9503609e-01 -2.5177741e+00 -5.8736893e+00 
2.1554157e-01 9.9723787e-01 -3.9348465e+00 
-2.9087631e-01 -1.4722441e+00 -4.1596158e+00 
3.3141564e-01 2.3097939e+00 -5.1455308e+00 
4.6035782e-01 2.3524787e+00 -4.2070849e+00 
8.0086326e-02 2.2664455e+00 -7.0505051e+00 
-8.3553654e-02 -2.4747777e+00 -7.4479385e+00 
-4.2457058e-01 -2.5605131e+00 -4.9341989e+00 
1.2140083e-01 2.2667199e+00 -6.7165011e+00 
1.4353349e-01 6.5109002e-01 -3.9347269e+00 
-1.2539157e-01 -2.4749788e+00 -7.1140009e+00 
-7.2491021e-02 -3.8754034e-01 -4.0092874e+00 
1.6283885e-01 2.2670263e+00 -6.3823231e+00 
-3.3763636e-01 -2.5180745e+00 -5.5336258e+00 
-1.6734622e-01 -2.4752041e+00 -6.7801165e+00 
-2.1752407e-01 -1.0980674e+00 -4.0844017e+00 
3.7364897e-01 2.3102428e+00 -4.8054572e+00 
-5.1241720e-01 -2.6030250e+00 -4.3110461e+00 
2.0440099e-01 2.2673655e+00 -6.0480751e+00 
-4.3772129e-01 -2.2092321e+00 -4.2353954e+00 
-2.0942403e-01 -2.4754534e+00 -6.4460638e+00 
7.1592510e-02 3.0640707e-01 -3.9346830e+00 
5.0305022e-01 2.3529865e+00 -3.8620398e+00 
2.4609425e-01 2.2677378e+00 -5.7138590e+00 
-3.6363436e-01 -1.8232451e+00 -4.1599273e+00 
-3.8040815e-01 -2.5183978e+00 -5.1924811e+00 
4.3067838e-01 2.0087034e+00 -3.8615753e+00 
-2.5163690e-01 -2.4757264e+00 -6.1116253e+00 
-4.6782491e-01 -2.5608600e+00 -4.5858701e+00 
3.5861067e-01 1.6653367e+00 -3.8611918e+00 
4.1603801e-01 2.3107211e+00 -4.4658187e+00 
-1.4462164e-01 -7.3325228e-01 -4.0094556e+00 
2.8792516e-01 2.2681430e+00 -5.3797749e+00 
2.8666095e-01 1.3230185e+00 -3.8608910e+00 
-3.0675405e-04 -3.6741640e-02 -3.9347116e+00 
-2.9399620e-01 -2.4760231e+00 -5.7765895e+00 
-2.8998039e-01 -1.4457095e+00 -4.0846778e+00 
-4.2336230e-01 -2.5187449e+00 -4.8500579e+00 
2.1482449e-01 9.8186659e-01 -3.8606723e+00 
-8.2880407e-02 -2.4330323e+00 -7.3293530e+00 
3.2990058e-01 2.2685807e+00 -5.0459206e+00 
-5.1113403e-01 -2.5612332e+00 -4.2357713e+00 
-1.2463061e-01 -2.4332469e+00 -6.9996406e+00 
-3.3651349e-01 -2.4763439e+00 -5.4407532e+00 
4.5860799e-01 2.3112275e+00 -4.1267078e+00 
-1.6649832e-01 -2.4334872e+00 -6.6699682e+00 
-2.1679365e-01 -1.0772109e+00 -4.0096825e+00 
-4.3651887e-01 -2.1723015e+00 -4.1602830e+00 
-7.2191455e-02 -3.7831007e-01 -3.9348096e+00 
1.4307608e-01 6.4198115e-01 -3.8605342e+00 
7.9170493e-02 2.2252382e+00 -6.9124583e+00 
-2.0848944e-01 -2.4337528e+00 -6.3401328e+00 
1.2037544e-01 2.2255271e+00 -6.5849539e+00 
-3.6254549e-01 -1.7915059e+00 -4.0850038e+00 
3.7202790e-01 2.2690504e+00 -4.7123910e+00 
1.6170259e-01 2.2258489e+00 -6.2572800e+00 
-4.6653122e-01 -2.5191180e+00 -4.5061778e+00 
-3.7920076e-01 -2.4766893e+00 -5.1039247e+00 
-2.5061553e-01 -2.4340434e+00 -6.0099361e+00 
7.1391490e-02 3.0344328e-01 -3.8604747e+00 
2.0315316e-01 2.2262044e+00 -5.9295372e+00 
5.0120442e-01 2.3117608e+00 -3.7882115e+00 
4.2910153e-01 1.9739923e+00 -3.7877215e+00 
-1.4409045e-01 -7.1827556e-01 -3.9349741e+00 
2.4473464e-01 2.2265939e+00 -5.6018239e+00 
-2.9288754e-01 -2.4343593e+00 -5.6791860e+00 
-2.8903949e-01 -1.4194394e+00 -4.0099662e+00 
3.5730570e-01 1.6370905e+00 -3.7873146e+00 
4.1431273e-01 2.2695509e+00 -4.3792779e+00 
-2.5505631e-04 -3.3686354e-02 -3.8604914e+00 
-4.2206777e-01 -2.4770605e+00 -4.7659269e+00 
2.8562837e-01 1.3011701e+00 -3.7869922e+00 
-5.0974942e-01 -2.5195196e+00 -4.1606864e+00 
2.8645405e-01 2.2270175e+00 -5.2742365e+00 
-3.3531654e-01 -2.4347009e+00 -5.3476987e+00 
-8.2162655e-02 -2.3913776e+00 -7.2099213e+00 
2.1406365e-01 9.6633321e-01 -3.7867538e+00 
-1.2382033e-01 -2.3916059e+00 -6.8845555e+00 
-4.3523598e-01 -2.1355318e+00 -4.0853798e+00 
-1.6559631e-01 -2.3918612e+00 -6.5592166e+00 
-2.1603410e-01 -1.0566388e+00 -3.9352027e+00 
-7.1890722e-02 -3.6936810e-01 -3.8605817e+00 
4.5678077e-01 2.2700811e+00 -4.0466689e+00 
3.2831872e-01 2.2274748e+00 -4.9468686e+00 
-2.0749595e-01 -2.3921433e+00 -6.2337197e+00 
-4.6514528e-01 -2.4774598e+00 -4.4266008e+00 
1.4258529e-01 6.3266710e-01 -3.7865986e+00 
-3.6139494e-01 -1.7599854e+00 -4.0103056e+00 
-3.7791384e-01 -2.4350689e+00 -5.0153017e+00 
-2.4953037e-01 -2.3924519e+00 -5.9078842e+00 
7.8206361e-02 2.1841412e+00 -6.7753496e+00 
1.1929887e-01 2.1844444e+00 -6.4542833e+00 
7.1168359e-02 3.0024212e-01 -3.7865250e+00 
3.7033647e-01 2.2279653e+00 -4.6198112e+00 
1.6051218e-01 2.1847815e+00 -6.1330506e+00 
-1.4354401e-01 -7.0358374e-01 -3.8607433e+00 
-2.9171013e-01 -2.3927874e+00 -5.5815361e+00 
-2.8805370e-01 -1.3934237e+00 -3.9354937e+00 
4.9927701e-01 2.2706400e+00 -3.7146475e+00 
-4.2068830e-01 -2.4354646e+00 -4.6818366e+00 
-5.0826740e-01 -2.4778892e+00 -4.0858091e+00 
4.2745297e-01 1.9393150e+00 -3.7141324e+00 
2.0184810e-01 2.1851532e+00 -5.8117488e+00 
3.5593859e-01 1.6088121e+00 -3.7137027e+00 
-2.1332477e-04 -3.0889513e-02 -3.7865311e+00 
2.4331461e-01 2.1855599e+00 -5.4904728e+00 
-3.3404580e-01 -2.3931501e+00 -5.2545098e+00 
2.8454336e-01 1.2792303e+00 -3.7133594e+00 
4.1251329e-01 2.2284881e+00 -4.2931520e+00 
-4.3387485e-01 -2.0989220e+00 -4.0107010e+00 
-8.1399794e-02 -2.3498181e+00 -7.0897483e+00 
-1.2296040e-01 -2.3500602e+00 -6.7688403e+00 
-2.1524460e-01 -1.0363366e+00 -3.8609740e+00 
2.1326050e-01 9.5065751e-01 -3.7131026e+00 
-1.6464003e-01 -2.3503308e+00 -6.4479468e+00 
-4.6366939e-01 -2.4358900e+00 -4.3471615e+00 
2.8491918e-01 2.1860018e+00 -5.1693156e+00 
-2.0644348e-01 -2.3506294e+00 -6.1268994e+00 
-7.1586991e-02 -3.6069454e-01 -3.7866149e+00 
-3.6018359e-01 -1.7286775e+00 -3.9358461e+00 
-3.7654810e-01 -2.3935410e+00 -4.9266503e+00 
1.4206290e-01 6.2316902e-01 -3.7129316e+00 
4.5487528e-01 2.2290421e+00 -3.9669749e+00 
-2.4838147e-01 -2.3509563e+00 -5.8055347e+00 
3.2666959e-01 2.1864787e+00 -4.8483672e+00 
-5.0669126e-01 -2.4363468e+00 -4.0111548e+00 
7.0925013e-02 2.9682505e-01 -3.7128452e+00 
-2.9046415e-01 -2.3513115e+00 -5.4836952e+00 
-4.1922517e-01 -2.3939612e+00 -4.5978161e+00 
-2.8702287e-01 -1.3676516e+00 -3.8612725e+00 
-1.4298090e-01 -6.8915924e-01 -3.7867744e+00 
7.7194722e-02 2.1431574e+00 -6.6391563e+00 
3.6857406e-01 2.1869901e+00 -4.5277151e+00 
1.1817167e-01 2.1434748e+00 -6.3244689e+00 
1.5926796e-01 2.1438270e+00 -6.0096171e+00 
4.9726707e-01 2.2296266e+00 -3.6413601e+00 
4.2573232e-01 1.9046793e+00 -3.6408202e+00 
-4.3243724e-01 -2.0624706e+00 -3.9362601e+00 
-3.3270169e-01 -2.3516957e+00 -5.1612322e+00 
-1.7971819e-04 -2.8330278e-02 -3.7128420e+00 
3.5450951e-01 1.5805138e+00 -3.6403681e+00 
2.0048597e-01 2.1442148e+00 -5.6946947e+00 
-8.0591291e-02 -2.3083583e+00 -6.9689349e+00 
2.8340665e-01 1.2572148e+00 -3.6400049e+00 
-4.6210551e-01 -2.3944126e+00 -4.2678810e+00 
-1.2205055e-01 -2.3086143e+00 -6.6525865e+00 
4.1063895e-01 2.1875353e+00 -4.2074436e+00 
-1.6362935e-01 -2.3089001e+00 -6.3362403e+00 
2.4183411e-01 2.1446387e+00 -5.3797938e+00 
-2.1442426e-01 -1.0162897e+00 -3.7870079e+00 
-3.5891204e-01 -1.6975753e+00 -3.8616378e+00 
-3.7510429e-01 -2.3521096e+00 -4.8380070e+00 
2.1241620e-01 9.3485774e-01 -3.6397306e+00 
-2.0533202e-01 -2.3092155e+00 -6.0197440e+00 
-7.1278628e-02 -3.5226998e-01 -3.7129204e+00 
2.8332032e-01 2.1450990e+00 -5.0650039e+00 
-2.4716893e-01 -2.3095606e+00 -5.7029499e+00 
1.4151036e-01 6.1350661e-01 -3.6395448e+00 
-5.0502364e-01 -2.3948963e+00 -3.9367375e+00 
4.5289072e-01 2.1881133e+00 -3.8876334e+00 
-4.1767957e-01 -2.3525543e+00 -4.5138932e+00 
3.2495279e-01 2.1455955e+00 -4.7504121e+00 
-2.8914988e-01 -2.3099357e+00 -5.3857164e+00 
-2.8594672e-01 -1.3421119e+00 -3.7873142e+00 
-1.4239985e-01 -6.7498479e-01 -3.7130788e+00 
7.0663026e-02 2.9321229e-01 -3.6394469e+00 
-4.3092445e-01 -2.0261757e+00 -3.8620698e+00 
-3.3128468e-01 -2.3103413e+00 -5.0679099e+00 
3.6674013e-01 2.1461279e+00 -4.4361027e+00 
4.9517378e-01 2.1887234e+00 -3.5683618e+00 
7.6136386e-02 2.1022901e+00 -6.5038601e+00 
-4.6045530e-01 -2.3530313e+00 -4.1887793e+00 
4.2393920e-01 1.8700926e+00 -3.5677973e+00 
1.1699446e-01 2.1026214e+00 -6.1954945e+00 
-1.5267226e-04 -2.5988850e-02 -3.6394355e+00 
1.5797035e-01 2.1029885e+00 -5.8869655e+00 
3.5301857e-01 1.5522068e+00 -3.5673232e+00 
-7.9736729e-02 -2.2670020e+00 -6.8475775e+00 
-1.2109056e-01 -2.2672721e+00 -6.5358810e+00 
-1.6256420e-01 -2.2675732e+00 -6.2241751e+00 
-2.1357222e-01 -9.9648357e-01 -3.7133159e+00 
1.9906696e-01 2.1033924e+00 -5.5783638e+00 
-3.5758063e-01 -1.6666718e+00 -3.7876924e+00 
2.8221877e-01 1.2351382e+00 -3.5669406e+00 
-3.7358316e-01 -2.3107782e+00 -4.7494068e+00 
-2.0416164e-01 -2.2679054e+00 -5.9123223e+00 
4.0868907e-01 2.1466956e+00 -4.1221569e+00 
2.4029315e-01 2.1038335e+00 -5.2697786e+00 
2.1153164e-01 9.1895071e-01 -3.5666497e+00 
-7.0964213e-02 -3.4407581e-01 -3.6395096e+00 
-5.0326661e-01 -2.3535417e+00 -3.8625702e+00 
-2.4589295e-01 -2.2682688e+00 -5.6001896e+00 
1.4092879e-01 6.0369816e-01 -3.5664503e+00 
2.8165729e-01 2.1043122e+00 -4.9612964e+00 
-4.1605253e-01 -2.3112474e+00 -4.4300948e+00 
-2.8776765e-01 -2.2686638e+00 -5.2876502e+00 
-2.8482488e-01 -1.3167935e+00 -3.7136304e+00 
4.5082637e-01 2.1472976e+00 -3.8086528e+00 
-1.4179967e-01 -6.6104371e-01 -3.6396679e+00 
-4.2933747e-01 -1.9900351e+00 -3.7881424e+00 
3.2316798e-01 2.1048284e+00 -4.6530016e+00 
7.0383686e-02 2.8942266e-01 -3.5663417e+00 
-3.2979527e-01 -2.2690909e+00 -4.9745848e+00 
-4.5872009e-01 -2.3117500e+00 -4.1098755e+00 
3.6483422e-01 2.1053818e+00 -4.3449757e+00 
-7.8835842e-02 -2.2257534e+00 -6.7257680e+00 
-1.3088031e-04 -2.3846647e-02 -3.5663233e+00 
4.9299641e-01 2.1479333e+00 -3.4956650e+00 
4.2207321e-01 1.8355617e+00 -3.4950761e+00 
-1.2008031e-01 -2.2260375e+00 -6.4188072e+00 
-3.5618950e-01 -1.6359600e+00 -3.7140218e+00 
7.5032184e-02 2.0615426e+00 -6.3694468e+00 
-1.6144461e-01 -2.2263539e+00 -6.1118256e+00 
-3.7198537e-01 -2.2695507e+00 -4.6608833e+00 
-2.1268765e-01 -9.7690418e-01 -3.6399092e+00 
3.5146576e-01 1.5239015e+00 -3.4945805e+00 
1.1576787e-01 2.0618877e+00 -6.0673479e+00 
1.5661976e-01 2.0622696e+00 -5.7650857e+00 
2.8098006e-01 1.2130137e+00 -3.4941791e+00 
-2.0293247e-01 -2.2267029e+00 -5.8046999e+00 
-5.0142169e-01 -2.3122868e+00 -3.7886654e+00 
1.9759130e-01 2.0626893e+00 -5.4627482e+00 
-7.0642534e-02 -3.3609450e-01 -3.5663941e+00 
4.0666307e-01 2.1059720e+00 -4.0372974e+00 
-2.4455376e-01 -2.2270845e+00 -5.4973109e+00 
2.1060748e-01 9.0295186e-01 -3.4938722e+00 
-4.1434492e-01 -2.2700441e+00 -4.3464466e+00 
2.3869177e-01 2.0631476e+00 -5.1604219e+00 
-2.8631780e-01 -2.2274993e+00 -5.1895453e+00 
1.4031912e-01 5.9376048e-01 -3.4936598e+00 
-2.8365691e-01 -1.2916856e+00 -3.6402325e+00 
-4.2767695e-01 -1.9540467e+00 -3.7144896e+00 
2.7992997e-01 2.0636447e+00 -4.8581906e+00 
-1.4117934e-01 -6.4732024e-01 -3.5665530e+00 
4.4868160e-01 2.1065982e+00 -3.7300422e+00 
-3.2823392e-01 -2.2279478e+00 -4.8812971e+00 
-4.5690091e-01 -2.2705721e+00 -4.0311880e+00 
7.0088030e-02 2.8547360e-01 -3.4935417e+00 
3.2131489e-01 2.0641806e+00 -4.5561362e+00 
-7.7888523e-02 -2.1846159e+00 -6.6035938e+00 
-1.1901982e-01 -2.1849141e+00 -6.3014440e+00 
-3.5473865e-01 -1.6054331e+00 -3.6406372e+00 
-3.7031152e-01 -2.2284304e+00 -4.5724689e+00 
-1.1326656e-04 -2.1886401e-02 -3.4935171e+00 
4.9073427e-01 2.1072595e+00 -3.4232826e+00 
-1.6027067e-01 -2.1852459e+00 -5.9992626e+00 
-2.1176979e-01 -9.5753822e-01 -3.5667992e+00 
4.2013394e-01 1.8010931e+00 -3.4226693e+00 
3.6285590e-01 2.0647552e+00 -4.2543377e+00 
-4.9949001e-01 -2.2711350e+00 -3.7150349e+00 
3.4985098e-01 1.4956075e+00 -3.4221524e+00 
-2.0164470e-01 -2.1856115e+00 -5.6969393e+00 
7.3882966e-02 2.0209186e+00 -6.2359055e+00 
1.1449255e-01 2.0212771e+00 -5.9400199e+00 
2.7969076e-01 1.1908535e+00 -3.4217326e+00 
-2.4315164e-01 -2.1860113e+00 -5.3943680e+00 
1.5521667e-01 2.0216736e+00 -5.6439706e+00 
-4.1255746e-01 -2.2289479e+00 -4.2629733e+00 
-7.0312567e-02 -3.2830968e-01 -3.4935854e+00 
2.0964421e-01 8.8687535e-01 -3.4214104e+00 
1.9605928e-01 2.0221092e+00 -5.3478430e+00 
4.0456041e-01 2.0653680e+00 -3.9528716e+00 
-2.8480068e-01 -2.1864459e+00 -5.0914480e+00 
-2.8244238e-01 -1.2667781e+00 -3.5671318e+00 
-4.2594330e-01 -1.9182085e+00 -3.6411230e+00 
2.3703008e-01 2.0225845e+00 -5.0517210e+00 
1.3968202e-01 5.8370904e-01 -3.4211858e+00 
-4.5499854e-01 -2.2295011e+00 -3.9527348e+00 
-1.4053799e-01 -6.3379963e-01 -3.4937458e+00 
-3.2660108e-01 -2.1869155e+00 -4.7880854e+00 
2.7813828e-01 2.0231000e+00 -4.7556862e+00 
4.4645581e-01 2.0660183e+00 -3.6518112e+00 
6.9776878e-02 2.8138116e-01 -3.4210587e+00 
-3.5322797e-01 -1.5750849e+00 -3.5675503e+00 
3.1939327e-01 2.0236557e+00 -4.4598181e+00 
-7.6894828e-02 -2.1435934e+00 -6.4811378e+00 
-3.6856214e-01 -2.1874208e+00 -4.4841945e+00 
-1.1790918e-01 -2.1439056e+00 -6.1838665e+00 
-4.9747229e-01 -2.2300900e+00 -3.6416905e+00 
-9.8956419e-05 -2.0092182e-02 -3.4210287e+00 
-1.5904256e-01 -2.1442526e+00 -5.8865534e+00 
-2.1081796e-01 -9.3837328e-01 -3.4939976e+00 
4.8838673e-01 2.0667054e+00 -3.3512271e+00 
-2.0029856e-01 -2.1446348e+00 -5.5891002e+00 
4.1812098e-01 1.7666932e+00 -3.3505896e+00 
3.4817409e-01 1.4673338e+00 -3.3500515e+00 
3.6080480e-01 2.0242515e+00 -4.1641936e+00 
-4.1069070e-01 -2.1879623e+00 -4.1796990e+00 
-2.4168687e-01 -2.1450528e+00 -5.2914130e+00 
2.7835097e-01 1.1686689e+00 -3.3496137e+00 
-6.9973462e-02 -3.2070624e-01 -3.4210953e+00 
7.2689610e-02 1.9804217e+00 -6.1032283e+00 
1.1316921e-01 1.9807935e+00 -5.8135045e+00 
1.5376158e-01 1.9812044e+00 -5.5236159e+00 
-4.2413672e-01 -1.8825189e+00 -3.5680541e+00 
2.0864216e-01 8.7073417e-01 -3.3492766e+00 
-2.8118083e-01 -1.2420616e+00 -3.4943400e+00 
-2.8321666e-01 -2.1455069e+00 -4.9934027e+00 
4.0238062e-01 2.0248870e+00 -3.8688871e+00 
1.9447121e-01 1.9816557e+00 -5.2336458e+00 
-4.5301352e-01 -2.1885405e+00 -3.8745333e+00 
1.3901800e-01 5.7355798e-01 -3.3490403e+00 
2.3530821e-01 1.9821481e+00 -4.9436756e+00 
-3.2489714e-01 -2.1459976e+00 -4.6949868e+00 
-1.3987485e-01 -6.2046826e-01 -3.4212579e+00 
6.9450870e-02 2.7716005e-01 -3.3489050e+00 
4.4414842e-01 2.0255617e+00 -3.5739701e+00 
2.7628218e-01 1.9826819e+00 -4.6537849e+00 
-3.5165726e-01 -1.5449097e+00 -3.4947724e+00 
-3.6673764e-01 -2.1465254e+00 -4.3960903e+00 
-4.9536900e-01 -2.1891552e+00 -3.5686437e+00 
-7.5854970e-02 -2.1026894e+00 -6.3584785e+00 
-1.1674863e-01 -2.1030155e+00 -6.0661462e+00 
-1.5776053e-01 -2.1033776e+00 -5.7737620e+00 
-2.0983153e-01 -9.1939788e-01 -3.4215158e+00 
3.1740293e-01 1.9832574e+00 -4.3640512e+00 
-8.7246781e-05 -1.8449376e-02 -3.3488702e+00 
-1.9889433e-01 -2.1037764e+00 -5.4812392e+00 
4.8595316e-01 2.0262745e+00 -3.2795113e+00 
4.1603389e-01 1.7323680e+00 -3.2788496e+00 
-4.0874504e-01 -2.1470907e+00 -4.0966471e+00 
-2.4015977e-01 -2.1042123e+00 -5.1884951e+00 
3.4643486e-01 1.4390887e+00 -3.2782906e+00 
3.5868058e-01 1.9838745e+00 -4.0745494e+00 
2.7696067e-01 1.1464701e+00 -3.2778349e+00 
-6.9624510e-02 -3.1327031e-01 -3.3489358e+00 
-4.2225726e-01 -1.8469763e+00 -3.4952944e+00 
-2.7987182e-01 -1.2175275e+00 -3.4218684e+00 
-2.8156604e-01 -2.1046859e+00 -4.8954515e+00 
7.1453024e-02 1.9400559e+00 -5.9714103e+00 
2.0760153e-01 8.5454022e-01 -3.2774833e+00 
1.1179856e-01 1.9404407e+00 -5.6877981e+00 
-4.5094619e-01 -2.1476937e+00 -3.7966009e+00 
1.5225503e-01 1.9408660e+00 -5.4040197e+00 
4.0012324e-01 1.9845328e+00 -3.7853522e+00 
-3.2312243e-01 -2.1051976e+00 -4.6020365e+00 
1.3832744e-01 5.6332027e-01 -3.2772358e+00 
1.9282745e-01 1.9413328e+00 -5.1201562e+00 
-1.3918925e-01 -6.0731364e-01 -3.3491011e+00 
2.3352632e-01 1.9418421e+00 -4.8362871e+00 
-3.5002626e-01 -1.5149021e+00 -3.4223152e+00 
6.9110491e-02 2.7282370e-01 -3.2770927e+00 
-4.9318033e-01 -2.1483342e+00 -3.4959062e+00 
-3.6483833e-01 -2.1057477e+00 -4.3081850e+00 
4.4175890e-01 1.9852318e+00 -3.4965294e+00 
-7.4769307e-02 -2.0619075e+00 -6.2356905e+00 
2.7436168e-01 1.9423943e+00 -4.5524900e+00 
-1.1553851e-01 -2.0622475e+00 -5.9483505e+00 
-1.5642490e-01 -2.0626246e+00 -5.6609491e+00 
-2.0880994e-01 -9.0060156e-01 -3.3493657e+00 
-7.7578080e-05 -1.6944637e-02 -3.2770537e+00 
-1.9743234e-01 -2.0630398e+00 -5.3734102e+00 
3.1534372e-01 1.9429896e+00 -4.2688406e+00 
-4.0672077e-01 -2.1063365e+00 -4.0138402e+00 
4.8343293e-01 1.9859706e+00 -3.2081479e+00 
-2.3857065e-01 -2.0634935e+00 -5.0856614e+00 
4.1387221e-01 1.6981235e+00 -3.2074621e+00 
3.4463303e-01 1.4108802e+00 -3.2068822e+00 
-4.2030480e-01 -1.8115797e+00 -3.4228555e+00 
-6.9265127e-02 -3.0598923e-01 -3.2771187e+00 
3.5648295e-01 1.9436281e+00 -3.9854123e+00 
2.7551980e-01 1.1242669e+00 -3.2064089e+00 
-2.7984915e-01 -2.0639864e+00 -4.7976350e+00 
-2.7851489e-01 -1.1931678e+00 -3.3497289e+00 
-4.4879672e-01 -2.1069643e+00 -3.7189543e+00 
2.0652242e-01 8.3830448e-01 -3.2060430e+00 
7.0174149e-02 1.8998254e+00 -5.8404487e+00 
-3.2127723e-01 -2.0645188e+00 -4.5092686e+00 
1.1038137e-01 1.9002230e+00 -5.5628994e+00 
3.9778783e-01 1.9443093e+00 -3.7022760e+00 
1.5069760e-01 1.9006623e+00 -5.2851821e+00 
-1.3848063e-01 -5.9432442e-01 -3.2772873e+00 
1.3761058e-01 5.5300776e-01 -3.2057847e+00 
1.9112838e-01 1.9011446e+00 -5.0073759e+00 
-4.9090628e-01 -2.1076305e+00 -3.4234895e+00 
-3.4833463e-01 -1.4850577e+00 -3.3501902e+00 
-3.6286445e-01 -2.0650911e+00 -4.2205065e+00 
2.3168464e-01 1.9016707e+00 -4.7295586e+00 
6.8756104e-02 2.6838439e-01 -3.2056342e+00 
-7.3638332e-02 -2.0212515e+00 -6.1128444e+00 
-1.1427923e-01 -2.0216051e+00 -5.8305438e+00 
4.3928671e-01 1.9450327e+00 -3.4195000e+00 
-2.0775266e-01 -8.8197484e-01 -3.2775590e+00 
-1.5503606e-01 -2.0219971e+00 -5.5481725e+00 
2.7237681e-01 1.9022413e+00 -4.4518063e+00 
-1.9591294e-01 -2.0224285e+00 -5.2656644e+00 
-4.0461804e-01 -2.0657034e+00 -3.9313003e+00 
-6.9509054e-05 -1.5565808e-02 -3.2055915e+00 
-2.3691983e-01 -2.0229000e+00 -4.9829570e+00 
3.1321549e-01 1.9028564e+00 -4.1741928e+00 
-4.1827914e-01 -1.7763282e+00 -3.3507492e+00 
4.8082541e-01 1.9457975e+00 -3.1371499e+00 
4.1163545e-01 1.6639653e+00 -3.1364398e+00 
3.4276827e-01 1.3827157e+00 -3.1358390e+00 
-6.8894829e-02 -2.9885150e-01 -3.2056564e+00 
-2.7806626e-01 -2.0234120e+00 -4.6999920e+00 
-2.7710960e-01 -1.1689756e+00 -3.2779332e+00 
-4.4656513e-01 -2.0663559e+00 -3.6416102e+00 
2.7402820e-01 1.1020681e+00 -3.1353483e+00 
3.5421161e-01 1.9035162e+00 -3.8967902e+00 
-3.1936178e-01 -2.0239650e+00 -4.4167159e+00 
2.0540482e-01 8.2203703e-01 -3.1349683e+00 
-1.3774850e-01 -5.8149031e-01 -3.2058286e+00 
6.8853965e-02 1.8597345e+00 -5.7103431e+00 
1.0891844e-01 1.8601446e+00 -5.4388091e+00 
-4.8854670e-01 -2.0670478e+00 -3.3514055e+00 
1.3686756e-01 5.4263133e-01 -3.1346994e+00 
3.9537399e-01 1.9042204e+00 -3.6196680e+00 
-3.4658201e-01 -1.4553724e+00 -3.2784094e+00 
1.4908989e-01 1.8605977e+00 -5.1671049e+00 
-3.6081617e-01 -2.0245594e+00 -4.1330817e+00 
1.8937444e-01 1.8610953e+00 -4.8953081e+00 
6.8387968e-02 2.6385332e-01 -3.1345419e+00 
-7.2462661e-02 -1.9807251e+00 -5.9900071e+00 
-1.1297134e-01 -1.9810922e+00 -5.7127869e+00 
2.2978339e-01 1.8616382e+00 -4.6234949e+00 
-1.5359447e-01 -1.9814989e+00 -5.4354870e+00 
-2.0665923e-01 -8.6350920e-01 -3.2061077e+00 
4.3673130e-01 1.9049685e+00 -3.3428931e+00 
-4.0243689e-01 -2.0251951e+00 -3.8490489e+00 
-1.9433651e-01 -1.9819464e+00 -5.1580508e+00 
-6.2694629e-05 -1.4301843e-02 -3.1344958e+00 
2.7032762e-01 1.8622270e+00 -4.3517396e+00 
-2.3520766e-01 -1.9824354e+00 -4.8804248e+00 
-4.1617996e-01 -1.7412216e+00 -3.2789871e+00 
3.1101815e-01 1.8628620e+00 -4.0801151e+00 
4.7812996e-01 1.9057594e+00 -3.0665300e+00 
-4.4425131e-01 -2.0258721e+00 -3.5645850e+00 
-2.7621764e-01 -1.9829664e+00 -4.6025594e+00 
-2.7565551e-01 -1.1449447e+00 -3.2064933e+00 
4.0932308e-01 1.6298992e+00 -3.0657956e+00 
-6.8513213e-02 -2.9184672e-01 -3.1345609e+00 
3.4084022e-01 1.3546024e+00 -3.0651740e+00 
2.7248565e-01 1.0798822e+00 -3.0646659e+00 
-3.1737627e-01 -1.9835400e+00 -4.3244098e+00 
3.5186630e-01 1.8635433e+00 -3.8086919e+00 
2.0424867e-01 8.0574723e-01 -3.0642719e+00 
-4.8610130e-01 -2.0265898e+00 -3.2796659e+00 
-1.3699242e-01 -5.6880204e-01 -3.1347372e+00 
-3.4476798e-01 -1.4258429e+00 -3.2069847e+00 
-3.5869356e-01 -1.9841562e+00 -4.0459366e+00 
1.3609844e-01 5.3220095e-01 -3.0639927e+00 
3.9288129e-01 1.8642705e+00 -3.5375384e+00 
6.7493489e-02 1.8197876e+00 -5.5810950e+00 
1.0741059e-01 1.8202099e+00 -5.3155298e+00 
1.4743257e-01 1.8206767e+00 -5.0497920e+00 
-7.1243018e-02 -1.9403322e+00 -5.8672423e+00 
-1.1161543e-01 -1.9407125e+00 -5.5951378e+00 
6.8006258e-02 2.5924069e-01 -3.0638283e+00 
1.8756608e-01 1.8211895e+00 -4.7839577e+00 
-1.5210065e-01 -1.9411338e+00 -5.3229450e+00 
-2.0552919e-01 -8.4519704e-01 -3.1350241e+00 
-4.0017729e-01 -1.9848152e+00 -3.7671070e+00 
-1.9270350e-01 -1.9415972e+00 -5.0506160e+00 
4.3409213e-01 1.8650433e+00 -3.2667203e+00 
2.2782286e-01 1.8217490e+00 -4.5181017e+00 
-5.6866990e-05 -1.3142713e-02 -3.0637791e+00 
-4.1400688e-01 -1.7062597e+00 -3.2075813e+00 
-2.3343446e-01 -1.9421036e+00 -4.7781058e+00 
2.6821422e-01 1.8223560e+00 -4.2522973e+00 
-4.4185508e-01 -1.9855168e+00 -3.4878951e+00 
-2.7430354e-01 -1.9426535e+00 -4.5053730e+00 
-2.7415216e-01 -1.1210696e+00 -3.1354213e+00 
4.7534592e-01 1.8658605e+00 -2.9963011e+00 
3.0875161e-01 1.8230109e+00 -3.9866158e+00 
-6.8119944e-02 -2.8496550e-01 -3.0638448e+00 
4.0693458e-01 1.5959307e+00 -2.9955423e+00 
3.3884847e-01 1.3265470e+00 -2.9948998e+00 
-3.1532084e-01 -1.9432474e+00 -4.2323806e+00 
2.7089189e-01 1.0577169e+00 -2.9943743e+00 
-4.8356967e-01 -1.9862603e+00 -3.2082828e+00 
3.4944677e-01 1.8237136e+00 -3.7211269e+00 
2.0305384e-01 7.8944375e-01 -2.9939666e+00 
-1.3621201e-01 -5.5625134e-01 -3.0640254e+00 
-3.4289211e-01 -1.3964664e+00 -3.1359281e+00 
-3.5649666e-01 -1.9438855e+00 -3.9590967e+00 
1.3530323e-01 5.2172579e-01 -2.9936770e+00 
3.9030933e-01 1.8244640e+00 -3.4558978e+00 
6.6093785e-02 1.7799895e+00 -5.4527076e+00 
-6.9980223e-02 -1.9000768e+00 -5.7446104e+00 
1.0585870e-01 1.7804237e+00 -5.1930657e+00 
-1.1021219e-01 -1.9004701e+00 -5.4776516e+00 
-3.9783911e-01 -1.9445677e+00 -3.6854953e+00 
6.7611086e-02 2.5455584e-01 -2.9935061e+00 
1.4572629e-01 1.7809039e+00 -4.9332485e+00 
-1.5055515e-01 -1.9009057e+00 -5.2105962e+00 
-2.0436213e-01 -8.2703163e-01 -3.0643204e+00 
1.8570378e-01 1.7814316e+00 -4.6733309e+00 
-1.9101435e-01 -1.9013849e+00 -4.9434044e+00 
-4.1175944e-01 -1.6714430e+00 -3.1365439e+00 
4.3136866e-01 1.8252616e+00 -3.1909934e+00 
2.2580333e-01 1.7820077e+00 -4.4133864e+00 
-5.1819669e-05 -1.2079321e-02 -2.9934539e+00 
-2.3160059e-01 -1.9019085e+00 -4.6760392e+00 
-4.3937613e-01 -1.9452940e+00 -3.4115566e+00 
2.6603671e-01 1.7826329e+00 -4.1534873e+00 
-2.7232420e-01 -1.9024772e+00 -4.4084669e+00 
-2.7259911e-01 -1.0973457e+00 -3.0647294e+00 
-6.7714733e-02 -2.7819937e-01 -2.9935205e+00 
4.7247258e-01 1.8261052e+00 -2.9264763e+00 
4.0446937e-01 1.5620654e+00 -2.9256929e+00 
3.0641580e-01 1.7833076e+00 -3.8937041e+00 
3.3679257e-01 1.2985561e+00 -2.9250295e+00 
-3.1319560e-01 -1.9030913e+00 -4.1406577e+00 
-4.8095132e-01 -1.9460632e+00 -3.1372682e+00 
2.6924660e-01 1.0355798e+00 -2.9244866e+00 
2.0182015e-01 7.7313467e-01 -2.9240650e+00 
-3.4095391e-01 -1.3672408e+00 -3.0652519e+00 
-1.3540691e-01 -5.4383079e-01 -2.9937056e+00 
3.4695277e-01 1.7840319e+00 -3.6341053e+00 
-3.5422544e-01 -1.9037512e+00 -3.8725865e+00 
1.3448186e-01 5.1121431e-01 -2.9237653e+00 
-6.8675187e-02 -1.8599630e+00 -5.6221686e+00 
3.8765770e-01 1.7848055e+00 -3.3747574e+00 
-3.9542218e-01 -1.9044567e+00 -3.6042337e+00 
-1.0876239e-01 -1.8603691e+00 -5.3603808e+00 
-1.4895859e-01 -1.8608189e+00 -5.0984882e+00 
-2.0315764e-01 -8.0900706e-01 -2.9940090e+00 
6.4655960e-02 1.7403449e+00 -5.3251860e+00 
6.7202507e-02 2.4980729e-01 -2.9235879e+00 
1.0426370e-01 1.7407907e+00 -5.0714226e+00 
1.4397180e-01 1.7412842e+00 -4.8174810e+00 
-1.8926955e-01 -1.8613137e+00 -4.8364588e+00 
-4.0943714e-01 -1.6367721e+00 -3.0658871e+00 
1.8378807e-01 1.7418266e+00 -4.5634349e+00 
-2.2970641e-01 -1.8618543e+00 -4.5742630e+00 
4.2856031e-01 1.7856280e+00 -3.1157245e+00 
-4.7394409e-05 -1.1103414e-02 -2.9235330e+00 
-4.3681409e-01 -1.9052075e+00 -3.3355855e+00 
2.2372514e-01 1.7424191e+00 -4.3093571e+00 
-2.7099591e-01 -1.0737689e+00 -2.9944302e+00 
-2.7027984e-01 -1.8624416e+00 -4.3118741e+00 
2.6379522e-01 1.7430624e+00 -4.0553188e+00 
-6.7297334e-02 -2.7154074e-01 -2.9236006e+00 
4.6950924e-01 1.7864983e+00 -2.8570683e+00 
-3.1100064e-01 -1.8630760e+00 -4.0492693e+00 
-4.7824570e-01 -1.9060027e+00 -3.0666345e+00 
4.0192683e-01 1.5283088e+00 -2.8562603e+00 
3.3467206e-01 1.2706362e+00 -2.8555758e+00 
3.0401066e-01 1.7437570e+00 -3.8013898e+00 
2.6754945e-01 1.0134779e+00 -2.8550155e+00 
-3.3895288e-01 -1.3381642e+00 -2.9949685e+00 
-3.5187983e-01 -1.8637575e+00 -3.7864299e+00 
-1.3457681e-01 -5.3153381e-01 -2.9237905e+00 
2.0054738e-01 7.5682756e-01 -2.8545802e+00 
3.4438407e-01 1.7445029e+00 -3.5476378e+00 
1.3363423e-01 5.0067436e-01 -2.8542704e+00 
-3.9292626e-01 -1.8644862e+00 -3.5233422e+00 
-6.7328897e-02 -1.8199953e+00 -5.4999720e+00 
-1.0726683e-01 -1.8204139e+00 -5.2433755e+00 
-1.4731165e-01 -1.8208776e+00 -4.9866665e+00 
-2.0191532e-01 -7.9111818e-01 -2.9241024e+00 
3.8492598e-01 1.7452998e+00 -3.2941286e+00 
6.6780536e-02 2.4500287e-01 -2.8540867e+00 
-4.0703942e-01 -1.6022482e+00 -2.9956233e+00 
-1.8746962e-01 -1.8213877e+00 -4.7298200e+00 
6.3181169e-02 1.7008589e+00 -5.1985368e+00 
1.0262652e-01 1.7013161e+00 -4.9506078e+00 
1.4216983e-01 1.7018225e+00 -4.7024973e+00 
-2.2775227e-01 -1.8219453e+00 -4.4728132e+00 
-4.3416856e-01 -1.8652618e+00 -3.2599977e+00 
-4.3470459e-05 -1.0207504e-02 -2.8540291e+00 
1.8181950e-01 1.7023795e+00 -4.4542784e+00 
4.2566651e-01 1.7461474e+00 -3.0409258e+00 
-2.6934210e-01 -1.0503359e+00 -2.9245360e+00 
-2.6817068e-01 -1.8225511e+00 -4.2156264e+00 
2.2158863e-01 1.7029883e+00 -4.2060230e+00 
-4.7545216e-01 -1.8660830e+00 -2.9963940e+00 
-6.6867528e-02 -2.6498276e-01 -2.8540979e+00 
-3.0873602e-01 -1.8232056e+00 -3.9582430e+00 
2.6148991e-01 1.7036496e+00 -3.9578017e+00 
4.6645513e-01 1.7470445e+00 -2.7880905e+00 
3.9930634e-01 1.4946666e+00 -2.7872577e+00 
3.3248642e-01 1.2427935e+00 -2.7865520e+00 
3.0153614e-01 1.7043640e+00 -3.7096835e+00 
-3.3688849e-01 -1.3092357e+00 -2.9250904e+00 
-3.4945973e-01 -1.8239088e+00 -3.7006503e+00 
2.6580003e-01 9.9141804e-01 -2.7859742e+00 
-1.3372138e-01 -5.1935459e-01 -2.8542927e+00 
1.9923526e-01 7.4052956e-01 -2.7855250e+00 
3.4174043e-01 1.7051315e+00 -3.4617357e+00 
-3.9035107e-01 -1.8246608e+00 -3.4428401e+00 
1.3276022e-01 4.9011321e-01 -2.7852052e+00 
-6.5942415e-02 -1.7801782e+00 -5.3780726e+00 
-1.0572640e-01 -1.7806089e+00 -5.1266837e+00 
-1.4561502e-01 -1.7810863e+00 -4.8751746e+00 
-2.0063477e-01 -7.7336052e-01 -2.8546134e+00 
-4.0456568e-01 -1.5678727e+00 -2.9257650e+00 
3.8211375e-01 1.7059520e+00 -3.2140235e+00 
-1.8561510e-01 -1.7816116e+00 -4.6235271e+00 
6.6345152e-02 2.4014974e-01 -2.7850151e+00 
-4.3143904e-01 -1.8254610e+00 -3.1848091e+00 
-2.2573856e-01 -1.7821860e+00 -4.3717250e+00 
6.1670619e-02 1.6615368e+00 -5.0727679e+00 
1.0094818e-01 1.6620050e+00 -4.8306296e+00 
1.4032118e-01 1.6625240e+00 -4.5883065e+00 
-3.9955961e-05 -9.3847892e-03 -2.7849551e+00 
-2.6763719e-01 -1.0270440e+00 -2.8550595e+00 
4.2268664e-01 1.7068248e+00 -2.9666100e+00 
-2.6599692e-01 -1.7828102e+00 -4.1197546e+00 
1.7979866e-01 1.6630954e+00 -4.3458710e+00 
2.1939418e-01 1.6637204e+00 -4.1033943e+00 
-4.7257002e-01 -1.8263085e+00 -2.9265592e+00 
-3.0640178e-01 -1.7834846e+00 -3.8676055e+00 
-6.6425117e-02 -2.5851932e-01 -2.7850252e+00 
2.5912093e-01 1.6643997e+00 -3.8609467e+00 
4.6330949e-01 1.7077488e+00 -2.7195559e+00 
3.9660723e-01 1.4611442e+00 -2.7186981e+00 
-3.3476020e-01 -1.2804545e+00 -2.8556303e+00 
3.3023511e-01 1.2150339e+00 -2.7179711e+00 
-3.4696499e-01 -1.7842096e+00 -3.6152705e+00 
2.6399794e-01 9.6940663e-01 -2.7173756e+00 
2.9899221e-01 1.6651339e+00 -3.6185965e+00 
-1.3284034e-01 -5.0728800e-01 -2.7852252e+00 
1.9788350e-01 7.2424741e-01 -2.7169127e+00 
-3.8769627e-01 -1.7849848e+00 -3.3627467e+00 
3.3902160e-01 1.6659231e+00 -3.3764107e+00 
1.3185964e-01 4.7953764e-01 -2.7165828e+00 
-6.4516866e-02 -1.7405162e+00 -5.2565205e+00 
-1.0414204e-01 -1.7409589e+00 -5.0103513e+00 
-1.4386946e-01 -1.7414496e+00 -4.7640545e+00 
-1.9931562e-01 -7.5573028e-01 -2.7855548e+00 
-4.0201528e-01 -1.5336474e+00 -2.8563249e+00 
-1.8370655e-01 -1.7419899e+00 -4.5176180e+00 
6.5896310e-02 2.3525452e-01 -2.7163865e+00 
-4.2862501e-01 -1.7858099e+00 -3.1100354e+00 
3.7922058e-01 1.6667671e+00 -3.1344542e+00 
-2.2366568e-01 -1.7425809e+00 -4.2710319e+00 
6.0125564e-02 1.6223841e+00 -4.9478887e+00 
9.9229720e-02 1.6228630e+00 -4.7114980e+00 
-3.6781114e-05 -8.6290908e-03 -2.7163240e+00 
-2.6588071e-01 -1.0038910e+00 -2.7860136e+00 
-2.6375880e-01 -1.7432234e+00 -4.0242884e+00 
1.3842668e-01 1.6233944e+00 -4.4749189e+00 
4.1962008e-01 1.6676653e+00 -2.8927897e+00 
-4.6959855e-01 -1.7866837e+00 -2.8571429e+00 
1.7772614e-01 1.6239799e+00 -4.2382233e+00 
-3.0399796e-01 -1.7439179e+00 -3.7773826e+00 
2.1714218e-01 1.6246209e+00 -4.0014822e+00 
-6.5969920e-02 -2.5214495e-01 -2.7163955e+00 
4.6007149e-01 1.6686166e+00 -2.6514777e+00 
2.5668847e-01 1.6253181e+00 -3.7647653e+00 
-3.3256742e-01 -1.2518205e+00 -2.7866009e+00 
-3.4439547e-01 -1.7446644e+00 -3.5303128e+00 
3.9382880e-01 1.4277475e+00 -2.6505947e+00 
3.2791754e-01 1.1873637e+00 -2.6498463e+00 
-1.3193339e-01 -4.9532955e-01 -2.7166007e+00 
2.6214273e-01 9.4744999e-01 -2.6492332e+00 
2.9637884e-01 1.6260721e+00 -3.5281408e+00 
1.9649180e-01 7.0798752e-01 -2.6487563e+00 
-3.8496151e-01 -1.7454630e+00 -3.2830808e+00 
-6.3053440e-02 -1.7010145e+00 -5.1353637e+00 
-1.0251473e-01 -1.7014687e+00 -4.8944225e+00 
3.3622735e-01 1.6268830e+00 -3.2916753e+00 
1.3093231e-01 4.6895402e-01 -2.6484163e+00 
-3.9938755e-01 -1.4995744e+00 -2.7873159e+00 
-1.4207576e-01 -1.7019726e+00 -4.6533462e+00 
-1.9795746e-01 -7.3822426e-01 -2.7169395e+00 
-1.8174459e-01 -1.7025277e+00 -4.4121290e+00 
-4.2572590e-01 -1.7463131e+00 -3.0356924e+00 
6.5433941e-02 2.3032332e-01 -2.6482137e+00 
-2.2153402e-01 -1.7031351e+00 -4.1707666e+00 
3.7624600e-01 1.6277507e+00 -3.0554336e+00 
-2.6145651e-01 -1.7037958e+00 -3.9292568e+00 
-2.6407215e-01 -9.8087536e-01 -2.7174112e+00 
-3.3892801e-05 -7.9347869e-03 -2.6481489e+00 
-4.6653698e-01 -1.7472135e+00 -2.7881578e+00 
5.8547313e-02 1.5834064e+00 -4.8239100e+00 
9.7472221e-02 1.5838956e+00 -4.5932239e+00 
1.3648719e-01 1.5844391e+00 -4.3623457e+00 
4.1646617e-01 1.6286745e+00 -2.8194782e+00 
-3.0152456e-01 -1.7045101e+00 -3.6876000e+00 
1.7560261e-01 1.5850386e+00 -4.1313470e+00 
-6.5501766e-02 -2.4585474e-01 -2.6482219e+00 
2.1483305e-01 1.5856954e+00 -3.9002985e+00 
-3.3030955e-01 -1.2233340e+00 -2.7180153e+00 
-3.4175097e-01 -1.7052784e+00 -3.4457993e+00 
4.5674027e-01 1.6296531e+00 -2.5838695e+00 
3.9097033e-01 1.3944820e+00 -2.5829611e+00 
2.5419273e-01 1.5864104e+00 -3.6692697e+00 
3.2553313e-01 1.1597888e+00 -2.5821910e+00 
-1.3100024e-01 -4.8347533e-01 -2.6484325e+00 
2.6023392e-01 9.2555424e-01 -2.5815600e+00 
-3.8214641e-01 -1.7061003e+00 -3.2038612e+00 
2.9369599e-01 1.5871842e+00 -3.4383288e+00 
1.9505979e-01 6.9175602e-01 -2.5810691e+00 
-3.9668177e-01 -1.4656562e+00 -2.7187507e+00 
-6.1553385e-02 -1.6616780e+00 -5.0146483e+00 
-1.0084551e-01 -1.6621435e+00 -4.7789397e+00 
1.2997801e-01 4.5836833e-01 -2.5807190e+00 
-1.4023476e-01 -1.6626602e+00 -4.5430889e+00 
-1.9655990e-01 -7.2083982e-01 -2.6487806e+00 
3.3335743e-01 1.5880169e+00 -3.2075422e+00 
-4.2274111e-01 -1.7069755e+00 -2.9617957e+00 
-1.7972983e-01 -1.6632298e+00 -4.3070956e+00 
6.4957958e-02 2.2536178e-01 -2.5805103e+00 
-2.1934402e-01 -1.6638535e+00 -4.0709609e+00 
3.7318957e-01 1.5889083e+00 -2.9769745e+00 
-2.5909027e-01 -1.6645323e+00 -3.8346881e+00 
-2.6221101e-01 -9.5799588e-01 -2.6492654e+00 
-4.6338447e-01 -1.7079027e+00 -2.7196169e+00 
-3.1250412e-05 -7.2967587e-03 -2.5804431e+00 
5.6937230e-02 1.5446096e+00 -4.7008436e+00 
-2.9898160e-01 -1.6652665e+00 -3.5982822e+00 
9.5676822e-02 1.5451087e+00 -4.4758195e+00 
4.1322425e-01 1.5898579e+00 -2.7466885e+00 
1.3450362e-01 1.5456640e+00 -4.2505993e+00 
-6.5020488e-02 -2.3964433e-01 -2.5805176e+00 
1.7342873e-01 1.5462772e+00 -4.0252546e+00 
-3.2798597e-01 -1.1949957e+00 -2.6498864e+00 
-3.3903130e-01 -1.6660565e+00 -3.3617514e+00 
2.1246723e-01 1.5469498e+00 -3.7998559e+00 
4.5331496e-01 1.5908642e+00 -2.5167446e+00 
3.8803104e-01 1.3613537e+00 -2.5158105e+00 
3.2308123e-01 1.1323150e+00 -2.5150186e+00 
2.5163391e-01 1.5476825e+00 -3.5744729e+00 
-1.3004062e-01 -4.7172199e-01 -2.5807338e+00 
-3.7925054e-01 -1.6669019e+00 -3.1251064e+00 
2.5827102e-01 9.0372536e-01 -2.5143697e+00 
2.9094364e-01 1.5484761e+00 -3.3491736e+00 
1.9358712e-01 6.7555879e-01 -2.5138647e+00 
-3.9389722e-01 -1.4318957e+00 -2.6506426e+00 
-6.0018007e-02 -1.6225121e+00 -4.8944187e+00 
-9.9135466e-02 -1.6229885e+00 -4.6639440e+00 
-1.3834731e-01 -1.6235177e+00 -4.4333200e+00 
-1.9512252e-01 -7.0357482e-01 -2.5810912e+00 
1.2899651e-01 4.4778621e-01 -2.5135044e+00 
-4.1967001e-01 -1.6678024e+00 -2.8883612e+00 
-1.7766292e-01 -1.6241017e+00 -4.2025517e+00 
3.3041158e-01 1.5493306e+00 -3.1240245e+00 
-2.1709610e-01 -1.6247416e+00 -3.9716456e+00 
6.4468262e-02 2.2037516e-01 -2.5132894e+00 
3.7005079e-01 1.5502459e+00 -2.8990905e+00 
-2.5666030e-01 -1.6254383e+00 -3.7406096e+00 
-2.6029676e-01 -9.3525198e-01 -2.5815894e+00 
-4.6014018e-01 -1.6687565e+00 -2.6515333e+00 
-2.8822641e-05 -6.7103401e-03 -2.5132199e+00 
-2.9636908e-01 -1.6261924e+00 -3.5094538e+00 
5.5296732e-02 1.5059999e+00 -4.5787027e+00 
4.0989360e-01 1.5512214e+00 -2.6744343e+00 
9.3844704e-02 1.5065086e+00 -4.3592979e+00 
-6.4525927e-02 -2.3350986e-01 -2.5132961e+00 
1.3247692e-01 1.5070753e+00 -4.1396929e+00 
-3.2559603e-01 -1.1668066e+00 -2.5822276e+00 
-3.3623623e-01 -1.6270040e+00 -3.2781906e+00 
1.7120520e-01 1.5077020e+00 -3.9199594e+00 
2.1004519e-01 1.5083901e+00 -3.7001680e+00 
4.4979463e-01 1.5522556e+00 -2.4501166e+00 
3.8501015e-01 1.3283684e+00 -2.4491567e+00 
-1.2905423e-01 -4.6006664e-01 -2.5135179e+00 
-3.7627346e-01 -1.6278731e+00 -3.0468348e+00 
3.2056119e-01 1.1049484e+00 -2.4483428e+00 
2.4901223e-01 1.5091405e+00 -3.4803884e+00 
2.5625349e-01 8.8196920e-01 -2.4476757e+00 
-3.9103312e-01 -1.3982958e+00 -2.5830047e+00 
1.9207339e-01 6.5940150e-01 -2.4471565e+00 
2.8812178e-01 1.5099538e+00 -3.2606888e+00 
-5.8448667e-02 -1.5835224e+00 -4.7747179e+00 
-9.7385726e-02 -1.5840093e+00 -4.5494750e+00 
-4.1651192e-01 -1.6287989e+00 -2.8154044e+00 
-1.3641433e-01 -1.5845508e+00 -4.3240760e+00 
-1.9364490e-01 -6.8642764e-01 -2.5138849e+00 
1.2798756e-01 4.3721303e-01 -2.4467860e+00 
-1.7554455e-01 -1.5851488e+00 -4.0985308e+00 
3.2738955e-01 1.5108302e+00 -3.0411361e+00 
-2.1479072e-01 -1.5858047e+00 -3.8728507e+00 
6.3964739e-02 2.1536835e-01 -2.4465647e+00 
-4.5680320e-01 -1.6297803e+00 -2.5839202e+00 
-2.5416684e-01 -1.5865193e+00 -3.6470485e+00 
-2.5832885e-01 -9.1264346e-01 -2.5143965e+00 
3.6682919e-01 1.5117694e+00 -2.8217952e+00 
-2.6585046e-05 -6.1712733e-03 -2.4464929e+00 
-2.9368700e-01 -1.5872932e+00 -3.4211386e+00 
4.0647350e-01 1.5127710e+00 -2.6027293e+00 
5.3627294e-02 1.4675836e+00 -4.4575015e+00 
-6.4017919e-02 -2.2744787e-01 -2.4465708e+00 
-3.2313905e-01 -1.1387683e+00 -2.5150520e+00 
9.1977099e-02 1.4681014e+00 -4.2436735e+00 
-3.3336554e-01 -1.5881266e+00 -3.1951377e+00 
1.3040806e-01 1.4686793e+00 -4.0296409e+00 
1.6893275e-01 1.4693192e+00 -3.8154757e+00 
2.0756740e-01 1.4700227e+00 -3.6012489e+00 
4.4617831e-01 1.5138335e+00 -2.3839993e+00 
-3.7321472e-01 -1.5890193e+00 -2.9690648e+00 
-1.2804076e-01 -4.4850687e-01 -2.4467983e+00 
3.8190683e-01 1.2955323e+00 -2.3830132e+00 
3.1797232e-01 1.0776949e+00 -2.3821771e+00 
2.4632793e-01 1.4707906e+00 -3.3870304e+00 
2.5418080e-01 8.6029154e-01 -2.3814917e+00 
-3.8808867e-01 -1.3648600e+00 -2.5158504e+00 
-5.6846779e-02 -1.5447146e+00 -4.6555875e+00 
1.9051821e-01 6.4328966e-01 -2.3809582e+00 
-9.5597473e-02 -1.5452117e+00 -4.4355714e+00 
-4.1326616e-01 -1.5899708e+00 -2.7429411e+00 
-1.3443675e-01 -1.5457652e+00 -4.2153924e+00 
2.8523039e-01 1.4716236e+00 -3.1728887e+00 
-1.9212662e-01 -6.6939705e-01 -2.4471750e+00 
-1.7337542e-01 -1.5463770e+00 -3.9950652e+00 
1.2695089e-01 4.2665390e-01 -2.3805773e+00 
-2.1242835e-01 -1.5470487e+00 -3.7746057e+00 
3.2429108e-01 1.4725219e+00 -2.9588910e+00 
-4.5337262e-01 -1.5909796e+00 -2.5167909e+00 
6.3447267e-02 2.1034592e-01 -2.3803497e+00 
-2.5161011e-01 -1.5477810e+00 -3.5540311e+00 
-2.5630671e-01 -8.9017055e-01 -2.4477003e+00 
3.6352424e-01 1.4734854e+00 -2.7451027e+00 
-2.4518213e-05 -5.6756693e-03 -2.3802757e+00 
-2.9093535e-01 -1.5485747e+00 -3.3333603e+00 
-3.2061433e-01 -1.1108827e+00 -2.4483734e+00 
-6.3496305e-02 -2.2145535e-01 -2.3803554e+00 
-3.3041897e-01 -1.5494299e+00 -3.1126138e+00 
4.0296319e-01 1.4745133e+00 -2.5315874e+00 
5.1930449e-02 1.4293673e+00 -4.3372555e+00 
9.0075284e-02 1.4298939e+00 -4.1289614e+00 
1.2829806e-01 1.4304826e+00 -3.9204584e+00 
1.6661216e-01 1.4311355e+00 -3.7118187e+00 
-3.7007382e-01 -1.5503464e+00 -2.8918145e+00 
-1.2699993e-01 -4.3704067e-01 -2.3805886e+00 
4.4246500e-01 1.4756042e+00 -2.3184065e+00 
3.7872022e-01 1.2628516e+00 -2.3173940e+00 
2.0503437e-01 1.4318541e+00 -3.5031137e+00 
3.1531390e-01 1.0505605e+00 -2.3165354e+00 
-3.8506305e-01 -1.3315921e+00 -2.4491933e+00 
2.5205236e-01 8.3869811e-01 -2.3158316e+00 
2.4358125e-01 1.4326394e+00 -3.2944138e+00 
-5.5213814e-02 -1.5060949e+00 -4.5370678e+00 
-4.0993199e-01 -1.5513237e+00 -2.6709871e+00 
-9.3771930e-02 -1.5066017e+00 -4.3222707e+00 
1.8892113e-01 6.2722863e-01 -2.3152836e+00 
-1.3241556e-01 -1.5071668e+00 -4.1073039e+00 
-1.9056723e-01 -6.5248230e-01 -2.3809751e+00 
2.8226945e-01 1.4334921e+00 -3.0857880e+00 
-1.7115626e-01 -1.5077922e+00 -3.8921866e+00 
1.2588623e-01 4.1611371e-01 -2.3148923e+00 
-2.1000948e-01 -1.5084795e+00 -3.6769393e+00 
-4.4984747e-01 -1.5523603e+00 -2.4501591e+00 
3.2111589e-01 1.4344125e+00 -2.8773039e+00 
6.2915713e-02 2.0531218e-01 -2.3146583e+00 
-2.4899036e-01 -1.5092295e+00 -3.4615835e+00 
-2.5422977e-01 -8.6783389e-01 -2.3815143e+00 
-2.8811413e-01 -1.5100429e+00 -3.2461420e+00 
-2.2606402e-05 -5.2199726e-03 -2.3145820e+00 
3.6013541e-01 1.4354002e+00 -2.6690274e+00 
-3.1802116e-01 -1.0831521e+00 -2.3822052e+00 
-3.2739629e-01 -1.5109200e+00 -3.0306394e+00 
-6.2960921e-02 -2.1552961e-01 -2.3146635e+00 
3.9936189e-01 1.4364546e+00 -2.4610228e+00 
5.0207789e-02 1.3913579e+00 -4.2179811e+00 
8.8140589e-02 1.3918928e+00 -4.0151780e+00 
1.2614800e-01 1.3924920e+00 -3.8121614e+00 
-3.6685026e-01 -1.5118604e+00 -2.8151021e+00 
1.6424421e-01 1.3931576e+00 -3.6090042e+00 
-1.2593142e-01 -4.2566645e-01 -2.3149027e+00 
4.3865367e-01 1.4375743e+00 -2.2533521e+00 
3.7544942e-01 1.2303325e+00 -2.2523130e+00 
-3.8195538e-01 -1.2984962e+00 -2.3830468e+00 
2.0244663e-01 1.3938912e+00 -3.4057781e+00 
3.1258519e-01 1.0235513e+00 -2.2514318e+00 
-4.0650867e-01 -1.5128637e+00 -2.5995583e+00 
2.4986758e-01 8.1719461e-01 -2.2507092e+00 
-5.3551297e-02 -1.4676695e+00 -4.4191984e+00 
2.4077245e-01 1.3946938e+00 -3.2025541e+00 
-9.1910371e-02 -1.4681855e+00 -4.2096096e+00 
-1.3035177e-01 -1.4687619e+00 -3.9998442e+00 
-1.8896628e-01 -6.3568299e-01 -2.3152991e+00 
1.8728172e-01 6.1122366e-01 -2.2501466e+00 
-1.6888785e-01 -1.4694007e+00 -3.7899262e+00 
2.7923896e-01 1.3955662e+00 -2.9994018e+00 
1.2479327e-01 4.0559716e-01 -2.2497448e+00 
-2.0753462e-01 -1.4701034e+00 -3.5798800e+00 
-4.4622674e-01 -1.5139283e+00 -2.3840383e+00 
6.2369938e-02 2.0027116e-01 -2.2495045e+00 
3.1786369e-01 1.3965086e+00 -2.7963896e+00 
-2.4630783e-01 -1.4708710e+00 -3.3697313e+00 
-2.5209741e-01 -8.4563451e-01 -2.3158523e+00 
-2.8522333e-01 -1.4717042e+00 -3.1595069e+00 
-2.0836537e-05 -4.8009297e-03 -2.2494259e+00 
3.5666216e-01 1.3975207e+00 -2.5935841e+00 
-3.1535878e-01 -1.0555789e+00 -2.3165613e+00 
-3.2429721e-01 -1.4726031e+00 -2.9492351e+00 
-6.2411601e-02 -2.0966835e-01 -2.2495092e+00 
3.9566877e-01 1.3986020e+00 -2.3910501e+00 
-3.6354352e-01 -1.4735676e+00 -2.7389458e+00 
4.8460969e-02 1.3535626e+00 -4.0996958e+00 
8.6174397e-02 1.3541054e+00 -3.9023405e+00 
1.2395897e-01 1.3547146e+00 -3.7047670e+00 
-1.2483490e-01 -4.1438294e-01 -2.2497544e+00 
-3.7876477e-01 -1.2655764e+00 -2.3174249e+00 
1.6182974e-01 1.3553927e+00 -3.5070487e+00 
4.3474324e-01 1.3997507e+00 -2.1888505e+00 
3.7209350e-01 1.1979816e+00 -2.1877844e+00 
3.0978540e-01 9.9667337e-01 -2.1868802e+00 
1.9980473e-01 1.3561410e+00 -3.3092583e+00 
-4.0299542e-01 -1.4745971e+00 -2.5286704e+00 
2.4762585e-01 7.9578671e-01 -2.1861388e+00 
-5.1860809e-02 -1.4294449e+00 -4.3020178e+00 
-9.0014116e-02 -1.4299698e+00 -4.0976238e+00 
-1.2824645e-01 -1.4305572e+00 -3.8930467e+00 
-1.8732328e-01 -6.1899912e-01 -2.2501610e+00 
2.3790180e-01 1.3569609e+00 -3.1114672e+00 
1.8559952e-01 5.9527992e-01 -2.1855614e+00 
-1.6657096e-01 -1.4312090e+00 -3.6883144e+00 
-4.4250939e-01 -1.4756899e+00 -2.3184423e+00 
1.2367172e-01 3.9510879e-01 -2.1851490e+00 
2.7613889e-01 1.3578530e+00 -2.9137460e+00 
-2.0500428e-01 -1.4319269e+00 -3.4834556e+00 
-2.4356279e-01 -1.4327120e+00 -3.2784999e+00 
-2.4990902e-01 -8.2357376e-01 -2.2507283e+00 
6.1809792e-02 1.9522668e-01 -2.1849022e+00 
3.1453420e-01 1.3588175e+00 -2.7161637e+00 
-2.8226294e-01 -1.4335648e+00 -3.0734778e+00 
-1.9197490e-05 -4.4155613e-03 -2.1848213e+00 
3.5310390e-01 1.3598541e+00 -2.5187877e+00 
-3.1262642e-01 -1.0281661e+00 -2.2514555e+00 
-3.2112148e-01 -1.4344857e+00 -2.8684213e+00 
-6.1848173e-02 -2.0386954e-01 -2.1849066e+00 
3.9188299e-01 1.3609624e+00 -2.3216838e+00 
-3.6015306e-01 -1.4354744e+00 -2.6633637e+00 
4.6691705e-02 1.3159888e+00 -3.9824181e+00 
8.4178140e-02 1.3165389e+00 -3.7904670e+00 
-1.2371005e-01 -4.0318924e-01 -2.1851578e+00 
-3.7549031e-01 -1.2328376e+00 -2.2523414e+00 
1.2173213e-01 1.3171579e+00 -3.5982929e+00 
4.3073258e-01 1.3621404e+00 -2.1249157e+00 
1.5936960e-01 1.3178481e+00 -3.4059699e+00 
-3.9939142e-01 -1.4365303e+00 -2.4583395e+00 
3.6865151e-01 1.1658056e+00 -2.1238224e+00 
3.0691373e-01 9.6993294e-01 -2.1228950e+00 
-5.0143987e-02 -1.3914279e+00 -4.1855636e+00 
1.9710923e-01 1.3186110e+00 -3.2135714e+00 
-8.8084531e-02 -1.3919613e+00 -3.9863487e+00 
2.4532650e-01 7.7448011e-01 -2.1221345e+00 
-1.2610068e-01 -1.3925592e+00 -3.7869440e+00 
-1.8563776e-01 -6.0243101e-01 -2.1855746e+00 
-1.6420643e-01 -1.3932238e+00 -3.5873815e+00 
1.8387403e-01 5.7940248e-01 -2.1215422e+00 
2.3496957e-01 1.3194480e+00 -3.0211700e+00 
-4.3869437e-01 -1.4376517e+00 -2.2533852e+00 
-2.0241902e-01 -1.3939568e+00 -3.3876938e+00 
1.2252125e-01 3.8465302e-01 -2.1211191e+00 
2.7296923e-01 1.3203597e+00 -2.8288368e+00 
-2.4075549e-01 -1.3947592e+00 -3.1879144e+00 
-2.4766395e-01 -8.0165340e-01 -2.1861564e+00 
6.1235122e-02 1.9018237e-01 -2.1208657e+00 
3.1112711e-01 1.3213464e+00 -2.6366420e+00 
-2.7923295e-01 -1.3956317e+00 -2.9880775e+00 
-1.7679555e-05 -4.0611371e-03 -2.1207826e+00 
-3.0982328e-01 -1.0009171e+00 -2.1869021e+00 
3.4946006e-01 1.3224078e+00 -2.4446538e+00 
-3.1786879e-01 -1.3965746e+00 -2.7882185e+00 
-6.1270463e-02 -1.9813146e-01 -2.1208698e+00 
-3.5667832e-01 -1.3975877e+00 -2.5883740e+00 
3.8800368e-01 1.3235433e+00 -2.2529390e+00 
-3.7213103e-01 -1.2002847e+00 -2.1878105e+00 
-1.2255654e-01 -3.9208477e-01 -2.1211272e+00 
4.4901778e-02 1.2786441e+00 -3.8661676e+00 
8.2153307e-02 1.2792012e+00 -3.6795767e+00 
-3.9569583e-01 -1.3986702e+00 -2.3885818e+00 
1.1946867e-01 1.2798295e+00 -3.4927577e+00 
4.2662052e-01 1.3247510e+00 -2.0615624e+00 
3.6512243e-01 1.1338114e+00 -2.0604414e+00 
1.5686468e-01 1.2805314e+00 -3.3057857e+00 
3.0396935e-01 9.4333635e-01 -2.0594906e+00 
-4.8402528e-02 -1.3536256e+00 -4.0698731e+00 
-8.6123034e-02 -1.3541670e+00 -3.8758189e+00 
-1.2391560e-01 -1.3547751e+00 -3.6815683e+00 
-1.8390921e-01 -5.8597934e-01 -2.1215544e+00 
2.4296888e-01 7.5328053e-01 -2.0587108e+00 
1.9436073e-01 1.2813088e+00 -3.1187352e+00 
-1.6179510e-01 -1.3554523e+00 -3.4871572e+00 
-4.3478055e-01 -1.3998206e+00 -2.1888809e+00 
1.8210476e-01 5.6359639e-01 -2.0581035e+00 
2.3197605e-01 1.2821627e+00 -2.9316795e+00 
-1.9977940e-01 -1.3562000e+00 -3.2926220e+00 
1.2134153e-01 3.7423412e-01 -2.0576695e+00 
2.6972998e-01 1.2830940e+00 -2.7446910e+00 
-2.3788623e-01 -1.3570197e+00 -3.0979998e+00 
-2.4536152e-01 -7.7987548e-01 -2.1221507e+00 
6.0645764e-02 1.8514167e-01 -2.0574095e+00 
-2.7613336e-01 -1.3579119e+00 -2.9033286e+00 
3.0764211e-01 1.2841030e+00 -2.5578407e+00 
-1.6274085e-05 -3.7351536e-03 -2.0573241e+00 
-3.0694853e-01 -9.7383537e-01 -2.1229152e+00 
-3.1453885e-01 -1.3588768e+00 -2.7086470e+00 
3.4573002e-01 1.2851893e+00 -2.3711980e+00 
-6.0678292e-02 -1.9245267e-01 -2.0574133e+00 
-3.5311871e-01 -1.3599144e+00 -2.5139950e+00 
3.8402991e-01 1.2863522e+00 -2.1848308e+00 
-3.6868595e-01 -1.1679229e+00 -2.1238465e+00 
-1.2137400e-01 -3.8106922e-01 -2.0576770e+00 
-3.9190780e-01 -1.3610238e+00 -2.3194132e+00 
4.3093036e-02 1.2415366e+00 -3.7509648e+00 
8.0101443e-02 1.2421001e+00 -3.5696895e+00 
1.1716981e-01 1.2427373e+00 -3.3881809e+00 
4.2240587e-01 1.2875900e+00 -1.9988050e+00 
3.6150524e-01 1.1020061e+00 -1.9976562e+00 
-4.6638187e-02 -1.3160454e+00 -3.9549827e+00 
-8.4131091e-02 -1.3165943e+00 -3.7660686e+00 
3.0095138e-01 9.1689004e-01 -1.9966816e+00 
1.5431592e-01 1.2434508e+00 -3.2065153e+00 
-1.2169240e-01 -1.3172123e+00 -3.5769515e+00 
-1.8213711e-01 -5.6964510e-01 -2.0581147e+00 
2.4055228e-01 7.3219373e-01 -1.9958823e+00 
1.9155984e-01 1.2442423e+00 -3.0247680e+00 
-4.3076679e-01 -1.3622034e+00 -2.1249437e+00 
-1.5933785e-01 -1.3179016e+00 -3.3876709e+00 
1.8029118e-01 5.4786668e-01 -1.9952597e+00 
-1.9708601e-01 -1.3186640e+00 -3.1982672e+00 
2.2892155e-01 1.2451131e+00 -2.8430137e+00 
1.2013222e-01 3.6385629e-01 -1.9948147e+00 
-2.3495528e-01 -1.3195007e+00 -3.0087810e+00 
-2.4300106e-01 -7.5824240e-01 -2.0587258e+00 
2.6642112e-01 1.2460640e+00 -2.6613258e+00 
6.0041548e-02 1.8010787e-01 -1.9945481e+00 
-2.7296415e-01 -1.3204125e+00 -2.8192537e+00 
3.0407888e-01 1.2470952e+00 -2.4797764e+00 
-1.4973239e-05 -3.4353139e-03 -1.9944604e+00 
-3.0400130e-01 -9.4692487e-01 -2.0595092e+00 
-3.1113136e-01 -1.3213997e+00 -2.6297273e+00 
3.4191314e-01 1.2482066e+00 -2.2984364e+00 
-6.0071474e-02 -1.8683195e-01 -1.9945516e+00 
-3.4947362e-01 -1.3224619e+00 -2.4402449e+00 
3.7996075e-01 1.2493973e+00 -2.1173746e+00 
-3.6515403e-01 -1.1357578e+00 -2.0604636e+00 
-1.2016208e-01 -3.7014260e-01 -1.9948216e+00 
-3.8802641e-01 -1.3235985e+00 -2.2508503e+00 
4.1267394e-02 1.2046746e+00 -3.6368312e+00 
7.8024148e-02 1.2052440e+00 -3.4608263e+00 
4.1808738e-01 1.2506655e+00 -1.9366585e+00 
3.5779884e-01 1.0703969e+00 -1.9354814e+00 
-4.4852781e-02 -1.2786950e+00 -3.8409286e+00 
1.1483686e-01 1.2058897e+00 -3.2845828e+00 
-8.2110223e-02 -1.2792509e+00 -3.6571317e+00 
2.9785893e-01 8.9060061e-01 -1.9344828e+00 
-1.8032092e-01 -5.5342960e-01 -1.9952700e+00 
-1.1943227e-01 -1.2798782e+00 -3.4731250e+00 
1.5172428e-01 1.2066143e+00 -3.1081781e+00 
-4.2665190e-01 -1.3248076e+00 -2.0615882e+00 
2.3807598e-01 7.1122554e-01 -1.9336638e+00 
-1.5683559e-01 -1.2805794e+00 -3.2889520e+00 
1.8870721e-01 1.2074197e+00 -2.9316889e+00 
1.7843275e-01 5.3221834e-01 -1.9330257e+00 
-1.9433945e-01 -1.2813562e+00 -3.1046565e+00 
2.2580639e-01 1.2083073e+00 -2.7551909e+00 
1.1889295e-01 3.5352365e-01 -1.9325696e+00 
-2.3196296e-01 -1.2822100e+00 -2.9202827e+00 
-2.4058185e-01 -7.3675687e-01 -1.9958961e+00 
2.6304265e-01 1.2092777e+00 -2.5787589e+00 
5.9422299e-02 1.7508412e-01 -1.9322963e+00 
-2.6972532e-01 -1.2831414e+00 -2.7358753e+00 
3.0043708e-01 1.2103314e+00 -2.4024664e+00 
-1.3769803e-05 -3.1595098e-03 -1.9322062e+00 
-3.0098072e-01 -9.2018985e-01 -1.9966988e+00 
-3.0764600e-01 -1.2841507e+00 -2.5514798e+00 
3.3800877e-01 1.2114680e+00 -2.2263854e+00 
-5.9449817e-02 -1.8126834e-01 -1.9322995e+00 
-3.4574245e-01 -1.2852378e+00 -2.3671423e+00 
-3.6153423e-01 -1.1037952e+00 -1.9976767e+00 
3.7579522e-01 1.2126867e+00 -2.0505862e+00 
-1.1892040e-01 -3.5930517e-01 -1.9325760e+00 
-3.8405076e-01 -1.2864018e+00 -2.1829094e+00 
-4.3048191e-02 -1.2415822e+00 -3.7277466e+00 
3.9426838e-02 1.1680666e+00 -3.5237891e+00 
4.1366373e-01 1.2139857e+00 -1.8751378e+00 
-8.0062002e-02 -1.2421446e+00 -3.5490416e+00 
7.5923084e-02 1.1686414e+00 -3.3530088e+00 
3.5400213e-01 1.0389914e+00 -1.8739320e+00 
-1.7846008e-01 -5.3733441e-01 -1.9330352e+00 
-1.1713649e-01 -1.2427809e+00 -3.3701203e+00 
1.1247113e-01 1.1692952e+00 -3.1819844e+00 
-4.2243464e-01 -1.2876408e+00 -1.9988288e+00 
2.9469106e-01 8.6447479e-01 -1.8729091e+00 
-1.5428928e-01 -1.2434937e+00 -3.1910296e+00 
1.4909075e-01 1.1700306e+00 -3.0107946e+00 
2.3553924e-01 6.9038185e-01 -1.8720701e+00 
-1.9154035e-01 -1.2442847e+00 -3.0118168e+00 
1.8580349e-01 1.1708497e+00 -2.8395174e+00 
1.7652891e-01 5.1665639e-01 -1.8714163e+00 
-2.2890955e-01 -1.2451553e+00 -2.8325296e+00 
-2.3810315e-01 -7.1542192e-01 -1.9336764e+00 
2.2263088e-01 1.1717539e+00 -2.6682301e+00 
1.1762335e-01 3.4324027e-01 -1.8709490e+00 
-2.6641685e-01 -1.2461063e+00 -2.6532162e+00 
2.5959455e-01 1.1727439e+00 -2.4970087e+00 
5.8787832e-02 1.7007347e-01 -1.8706689e+00 
-2.9788586e-01 -8.9363486e-01 -1.9344986e+00 
-3.0408244e-01 -1.2471379e+00 -2.4739251e+00 
2.9671636e-01 1.1738200e+00 -2.3259281e+00 
-1.2657078e-05 -2.9058054e-03 -1.8705765e+00 
-3.4192453e-01 -1.2482499e+00 -2.2947055e+00 
3.3401622e-01 1.1749820e+00 -2.1550617e+00 
-5.8813124e-02 -1.7576108e-01 -1.8706719e+00 
-3.5782544e-01 -1.0720415e+00 -1.9355003e+00 
-3.7997986e-01 -1.2494416e+00 -2.1156072e+00 
3.7153230e-01 1.1762291e+00 -1.9844816e+00 
-1.1764858e-01 -3.4855744e-01 -1.8709549e+00 
-4.1226363e-02 -1.2047153e+00 -3.6154723e+00 
-7.7988055e-02 -1.2052837e+00 -3.4418319e+00 
-4.1811375e-01 -1.2507110e+00 -1.9366804e+00 
4.0913360e-01 1.1775592e+00 -1.8142580e+00 
3.5011395e-01 1.0077973e+00 -1.8130233e+00 
3.7573427e-02 1.1317218e+00 -3.4118620e+00 
-1.1480636e-01 -1.2059286e+00 -3.2679685e+00 
-1.7655402e-01 -5.2136142e-01 -1.8714251e+00 
7.3799971e-02 1.1323013e+00 -3.2462596e+00 
2.9144679e-01 8.3851949e-01 -1.8119757e+00 
1.1007401e-01 1.1329627e+00 -3.0804074e+00 
-1.5169989e-01 -1.2066526e+00 -3.0939326e+00 
2.3294128e-01 6.6966868e-01 -1.8111164e+00 
1.4641636e-01 1.1337086e+00 -2.9143858e+00 
-1.8868936e-01 -1.2074576e+00 -2.9197749e+00 
1.7457908e-01 5.0118587e-01 -1.8104468e+00 
1.8284937e-01 1.1345412e+00 -2.7482740e+00 
-2.2579540e-01 -1.2083449e+00 -2.7455465e+00 
-2.3556418e-01 -6.9424088e-01 -1.8720818e+00 
1.1632304e-01 3.3301015e-01 -1.8099681e+00 
2.1939538e-01 1.1354618e+00 -2.5821508e+00 
-2.6303874e-01 -1.2093155e+00 -2.5712989e+00 
5.8137957e-02 1.6507885e-01 -1.8096811e+00 
2.5607681e-01 1.1364713e+00 -2.4160938e+00 
-2.9471577e-01 -8.6726478e-01 -1.8729237e+00 
-3.0044035e-01 -1.2103695e+00 -2.3970838e+00 
-1.1628798e-05 -2.6724222e-03 -1.8095863e+00 
2.9291638e-01 1.1375700e+00 -2.2501793e+00 
-3.3801921e-01 -1.2115067e+00 -2.2229534e+00 
-5.8161193e-02 -1.7030963e-01 -1.8096838e+00 
3.2993478e-01 1.1387576e+00 -2.0844825e+00 
-3.5402653e-01 -1.0405031e+00 -1.8739494e+00 
-3.7581274e-01 -1.2127263e+00 -2.0489605e+00 
-1.1634621e-01 -3.3790017e-01 -1.8099735e+00 
3.6717094e-01 1.1400333e+00 -1.9190769e+00 
-3.9389311e-02 -1.1681029e+00 -3.5041408e+00 
-4.1368792e-01 -1.2140264e+00 -1.8751579e+00 
-7.5890068e-02 -1.1686768e+00 -3.3355357e+00 
-1.7460213e-01 -5.0551279e-01 -1.8104549e+00 
-1.1244323e-01 -1.1693298e+00 -3.1667008e+00 
4.0449558e-01 1.1413950e+00 -1.7540345e+00 
3.4613309e-01 9.7682276e-01 -1.7527704e+00 
3.5709293e-02 1.0956492e+00 -3.3010740e+00 
7.1656594e-02 1.0962330e+00 -3.1406020e+00 
2.8812514e-01 8.1274180e-01 -1.7516979e+00 
-1.4906843e-01 -1.1700647e+00 -2.9976901e+00 
1.0764693e-01 1.0969015e+00 -2.9798746e+00 
2.3028128e-01 6.4909212e-01 -1.7508180e+00 
-1.8578716e-01 -1.1708834e+00 -2.8285578e+00 
1.4370220e-01 1.0976576e+00 -2.8189735e+00 
1.7258264e-01 4.8581185e-01 -1.7501324e+00 
1.7984557e-01 1.0985033e+00 -2.6579796e+00 
-2.2262083e-01 -1.1717874e+00 -2.6593583e+00 
-2.3296417e-01 -6.7321737e-01 -1.8111272e+00 
1.1499160e-01 3.2283731e-01 -1.7496422e+00 
2.1610022e-01 1.0994403e+00 -2.4969732e+00 
-2.5959098e-01 -1.1727774e+00 -2.4901463e+00 
5.7472475e-02 1.6010310e-01 -1.7493482e+00 
2.5248943e-01 1.1004692e+00 -2.3360335e+00 
-2.9146947e-01 -8.4108479e-01 -1.8119891e+00 
-2.9671937e-01 -1.1738539e+00 -2.3209767e+00 
-1.0679083e-05 -2.4577264e-03 -1.7492510e+00 
2.8903674e-01 1.1015906e+00 -2.1752385e+00 
-3.3402579e-01 -1.1750164e+00 -2.1519047e+00 
-5.7493812e-02 -1.6491363e-01 -1.7493507e+00 
3.2576373e-01 1.1028040e+00 -2.0146652e+00 
-3.5013632e-01 -1.0091867e+00 -1.8130393e+00 
-3.7154836e-01 -1.1762643e+00 -1.9829861e+00 
-1.1501287e-01 -3.2733437e-01 -1.7496472e+00 
3.6271005e-01 1.1041086e+00 -1.8543888e+00 
-4.0915577e-01 -1.1775955e+00 -1.8142766e+00 
-3.7539120e-02 -1.1317540e+00 -3.3937876e+00 
-7.3769784e-02 -1.1323327e+00 -3.2301862e+00 
-1.7260381e-01 -4.8979094e-01 -1.7501399e+00 
-1.1004850e-01 -1.1329934e+00 -3.0663482e+00 
3.9974824e-01 1.1055023e+00 -1.6944829e+00 
3.4205832e-01 9.4607597e-01 -1.6931891e+00 
-1.4639596e-01 -1.1337388e+00 -2.9023311e+00 
2.8472505e-01 7.8714898e-01 -1.6920912e+00 
3.3836648e-02 1.0598587e+00 -3.1914503e+00 
6.9494801e-02 1.0604461e+00 -3.0360605e+00 
2.2755843e-01 6.2865840e-01 -1.6911905e+00 
-1.8283444e-01 -1.1345710e+00 -2.7381924e+00 
1.0519137e-01 1.0611212e+00 -2.8804093e+00 
1.4094938e-01 1.0618871e+00 -2.7245801e+00 
1.7053899e-01 4.7053947e-01 -1.6904886e+00 
-2.1938619e-01 -1.1354915e+00 -2.5739898e+00 
-2.3030229e-01 -6.5235533e-01 -1.7508280e+00 
1.7679282e-01 1.0627457e+00 -2.5686556e+00 
1.1362863e-01 3.1272570e-01 -1.6899868e+00 
-2.5607356e-01 -1.1365010e+00 -2.4097812e+00 
2.1274578e-01 1.0636988e+00 -2.4127177e+00 
5.6791181e-02 1.5514900e-01 -1.6896857e+00 
-2.8814593e-01 -8.1510042e-01 -1.7517103e+00 
2.4883239e-01 1.0647472e+00 -2.2568474e+00 
-2.9291914e-01 -1.1376000e+00 -2.2456247e+00 
-9.8024006e-06 -2.2602162e-03 -1.6895861e+00 
2.8507708e-01 1.0658913e+00 -2.1011245e+00 
-3.2994356e-01 -1.1387881e+00 -2.0815785e+00 
-5.6810765e-02 -1.5957291e-01 -1.6896880e+00 
-3.4615361e-01 -9.7809971e-01 -1.7527852e+00 
3.2150231e-01 1.0671307e+00 -1.9456276e+00 
-3.6718566e-01 -1.1400646e+00 -1.9177013e+00 
-1.1364815e-01 -3.1686127e-01 -1.6899914e+00 
3.5814849e-01 1.0684646e+00 -1.7904339e+00 
-4.0451591e-01 -1.1414272e+00 -1.7540516e+00 
-3.5677945e-02 -1.0956778e+00 -3.2844478e+00 
-7.1629006e-02 -1.0962608e+00 -3.1258165e+00 
-1.0762361e-01 -1.0969286e+00 -2.9669419e+00 
-1.7055841e-01 -4.7419857e-01 -1.6904955e+00 
3.9489007e-01 1.0698907e+00 -1.6356189e+00 
-1.4368355e-01 -1.0976842e+00 -2.8078847e+00 
3.3788834e-01 9.1556552e-01 -1.6342949e+00 
2.8124544e-01 7.6174854e-01 -1.6331714e+00 
3.1957781e-02 1.0243601e+00 -3.0830168e+00 
-1.7983192e-01 -1.0985297e+00 -2.6487058e+00 
6.7316508e-02 1.0249506e+00 -2.9326598e+00 
2.2477185e-01 6.0837389e-01 -1.6322496e+00 
1.0270886e-01 1.0256318e+00 -2.7820355e+00 
-2.1609183e-01 -1.0994664e+00 -2.4894661e+00 
-2.2757770e-01 -6.3165900e-01 -1.6911997e+00 
1.6844746e-01 4.5537391e-01 -1.6315312e+00 
1.3815904e-01 1.0264070e+00 -2.6312288e+00 
1.7369190e-01 1.0272784e+00 -2.4803243e+00 
1.1223369e-01 3.0267931e-01 -1.6310175e+00 
-2.5248646e-01 -1.1004955e+00 -2.3302267e+00 
2.0933242e-01 1.0282475e+00 -2.3294057e+00 
5.6093860e-02 1.5021925e-01 -1.6307093e+00 
-2.8474412e-01 -7.8931748e-01 -1.6921026e+00 
-2.8903929e-01 -1.1016171e+00 -2.1710489e+00 
2.4510568e-01 1.0293153e+00 -2.1785558e+00 
-8.9935459e-06 -2.0785110e-03 -1.6306073e+00 
-3.2577179e-01 -1.1028309e+00 -2.0119939e+00 
2.8103699e-01 1.0304822e+00 -2.0278563e+00 
-5.6111827e-02 -1.5428749e-01 -1.6307115e+00 
-3.4207713e-01 -9.4724948e-01 -1.6932027e+00 
3.1714973e-01 1.0317478e+00 -1.8773878e+00 
-3.6272355e-01 -1.1041363e+00 -1.8531234e+00 
-1.1225160e-01 -3.0648233e-01 -1.6310218e+00 
3.5348511e-01 1.0331113e+00 -1.7272293e+00 
-3.9976686e-01 -1.1055308e+00 -1.6944987e+00 
-3.3808020e-02 -1.0598839e+00 -3.1761565e+00 
-6.9469603e-02 -1.0604706e+00 -3.0224598e+00 
-1.0517007e-01 -1.0611451e+00 -2.8685130e+00 
-1.6846527e-01 -4.5873865e-01 -1.6315376e+00 
-1.4093234e-01 -1.0619105e+00 -2.7143801e+00 
3.8991953e-01 1.0345702e+00 -1.5774586e+00 
3.3362183e-01 8.8530027e-01 -1.5761040e+00 
2.7768521e-01 7.3654817e-01 -1.5749545e+00 
-1.7678036e-01 -1.0627689e+00 -2.5601251e+00 
3.0075064e-02 9.8916400e-01 -2.9758004e+00 
2.2192064e-01 5.8824510e-01 -1.5740113e+00 
6.5123697e-02 9.8975677e-01 -2.8304260e+00 
1.0020100e-01 9.9044363e-01 -2.6847780e+00 
-2.1273812e-01 -1.0637218e+00 -2.4058123e+00 
-2.2478951e-01 -6.1113290e-01 -1.6322581e+00 
1.6630738e-01 4.4032047e-01 -1.5732761e+00 
1.3533237e-01 9.9122778e-01 -2.5389434e+00 
1.1080634e-01 2.9270214e-01 -1.5727504e+00 
-2.4882969e-01 -1.0647703e+00 -2.2515061e+00 
1.7054358e-01 9.9211151e-01 -2.3930085e+00 
2.0586055e-01 9.9309649e-01 -2.2470589e+00 
5.5380290e-02 1.4531651e-01 -1.5724350e+00 
-2.8126293e-01 -7.6374214e-01 -1.6331819e+00 
-2.8507943e-01 -1.0659146e+00 -2.0972706e+00 
2.4130929e-01 9.9418372e-01 -2.1011794e+00 
-8.2476254e-06 -1.9113416e-03 -1.5723304e+00 
-3.2150970e-01 -1.0671545e+00 -1.9431704e+00 
2.7691605e-01 9.9537353e-01 -1.9554536e+00 
-3.3790558e-01 -9.1664389e-01 -1.6343075e+00 
-5.5396767e-02 -1.4905753e-01 -1.5724369e+00 
-3.5816087e-01 -1.0684890e+00 -1.7892699e+00 
3.1270518e-01 9.9666559e-01 -1.8099643e+00 
-1.1082276e-01 -2.9619920e-01 -1.5727543e+00 
-3.9490713e-01 -1.0699158e+00 -1.6356335e+00 
3.4871869e-01 9.9805899e-01 -1.6647925e+00 
-3.1931652e-02 -1.0243823e+00 -3.0689490e+00 
-6.7293506e-02 -1.0249720e+00 -2.9201495e+00 
-1.0268942e-01 -1.0256527e+00 -2.7710929e+00 
-1.6632371e-01 -4.4341439e-01 -1.5732820e+00 
-1.3814348e-01 -1.0264275e+00 -2.6218465e+00 
3.8483500e-01 9.9955125e-01 -1.5200181e+00 
3.2925739e-01 8.5528938e-01 -1.5186325e+00 
-1.7368052e-01 -1.0272986e+00 -2.4724777e+00 
2.7404320e-01 7.1155583e-01 -1.5174565e+00 
2.1900388e-01 5.6827871e-01 -1.5164916e+00 
2.8190954e-02 9.5428103e-01 -2.8698288e+00 
-2.0932544e-01 -1.0282676e+00 -2.3230540e+00 
-2.2193683e-01 -5.9078185e-01 -1.5740190e+00 
6.2918423e-02 9.5487550e-01 -2.7293856e+00 
9.7669429e-02 9.5556742e-01 -2.5886625e+00 
1.6411806e-01 4.2538451e-01 -1.5157395e+00 
1.3247062e-01 9.5636011e-01 -2.4477484e+00 
-2.4510324e-01 -1.0293355e+00 -2.1736427e+00 
1.0934610e-01 2.8279821e-01 -1.5152016e+00 
1.6734870e-01 9.5725593e-01 -2.3067315e+00 
-2.7770123e-01 -7.3838089e-01 -1.5749641e+00 
-2.8103916e-01 -1.0305026e+00 -2.0243114e+00 
2.0233057e-01 9.5825662e-01 -2.1656995e+00 
5.4650242e-02 1.4044340e-01 -1.5148788e+00 
2.3744321e-01 9.5936320e-01 -2.0247393e+00 
-7.5600438e-06 -1.7575406e-03 -1.5147717e+00 
-3.1715651e-01 -1.0317686e+00 -1.8751276e+00 
-3.3363761e-01 -8.8629113e-01 -1.5761155e+00 
2.7271385e-01 9.6057602e-01 -1.8839365e+00 
-5.4665345e-02 -1.4388337e-01 -1.5148806e+00 
-3.5349645e-01 -1.0331327e+00 -1.7261587e+00 
3.0816781e-01 9.6189474e-01 -1.7433760e+00 
-1.0936116e-01 -2.8601378e-01 -1.5152052e+00 
-3.8993516e-01 -1.0345923e+00 -1.5774720e+00 
3.4384798e-01 9.6331842e-01 -1.6031411e+00 
-3.0051233e-02 -9.8918333e-01 -2.9628607e+00 
-6.5102714e-02 -9.8977551e-01 -2.8189189e+00 
-1.0018326e-01 -9.9046187e-01 -2.6747130e+00 
-1.6413303e-01 -4.2822928e-01 -1.5157449e+00 
-1.3531818e-01 -9.9124563e-01 -2.5303135e+00 
3.7963484e-01 9.6484448e-01 -1.4633139e+00 
-1.7053321e-01 -9.9212911e-01 -2.3857911e+00 
3.2479359e-01 8.2554237e-01 -1.4618968e+00 
2.7031820e-01 6.8677971e-01 -1.4606940e+00 
2.1602061e-01 5.4848159e-01 -1.4597070e+00 
-2.0585420e-01 -9.9311398e-01 -2.2412165e+00 
-2.1901872e-01 -5.7061100e-01 -1.5164988e+00 
2.6307995e-02 9.1972243e-01 -2.7651304e+00 
6.0702814e-02 9.2031791e-01 -2.6295659e+00 
1.6187878e-01 4.1057152e-01 -1.4589377e+00 
9.5115854e-02 9.2101434e-01 -2.4937151e+00 
-2.4130708e-01 -9.9420125e-01 -2.0966603e+00 
1.2957506e-01 9.2181512e-01 -2.3576688e+00 
1.0785251e-01 2.7297157e-01 -1.4583874e+00 
1.6410810e-01 9.2272274e-01 -2.2215174e+00 
-2.7405787e-01 -7.1324054e-01 -1.5174654e+00 
-2.7691806e-01 -9.9539126e-01 -1.9521931e+00 
5.3903476e-02 1.3560252e-01 -1.4580572e+00 
1.9874290e-01 9.2373896e-01 -2.0853505e+00 
2.3350742e-01 9.2486486e-01 -1.9492572e+00 
-6.9264937e-06 -1.6160346e-03 -1.4579476e+00 
-3.1271140e-01 -9.9668368e-01 -1.8078854e+00 
-3.2927185e-01 -8.5619975e-01 -1.5186431e+00 
2.6842992e-01 9.2610080e-01 -1.8133254e+00 
-5.3917313e-02 -1.3876549e-01 -1.4580588e+00 
-3.4872908e-01 -9.9807760e-01 -1.6638078e+00 
3.0353676e-01 9.2744641e-01 -1.6776421e+00 
-1.0786630e-01 -2.7592816e-01 -1.4583907e+00 
-3.8484932e-01 -9.9957053e-01 -1.5200304e+00 
3.3887166e-01 9.2890073e-01 -1.5422931e+00 
-2.8169236e-02 -9.5429782e-01 -2.8579271e+00 
-6.2899298e-02 -9.5489175e-01 -2.7188017e+00 
-9.7653257e-02 -9.5558321e-01 -2.5794049e+00 
-1.6189248e-01 -4.1318705e-01 -1.4589427e+00 
-1.3245769e-01 -9.5637554e-01 -2.4398108e+00 
-1.6733925e-01 -9.5727113e-01 -2.3000932e+00 
3.7431731e-01 9.3046108e-01 -1.4073627e+00 
3.2022896e-01 7.9606904e-01 -1.4059135e+00 
2.6650897e-01 6.6222828e-01 -1.4046836e+00 
-2.1603420e-01 -5.5062577e-01 -1.4597136e+00 
-2.0232479e-01 -9.5827171e-01 -2.1603259e+00 
2.1296982e-01 5.2886080e-01 -1.4036742e+00 
2.4428822e-02 8.8549981e-01 -2.6617344e+00 
5.8479072e-02 8.8609559e-01 -2.5309951e+00 
1.5958877e-01 3.9588711e-01 -1.4028874e+00 
9.2542040e-02 8.8679593e-01 -2.3999628e+00 
-2.3744121e-01 -9.5937833e-01 -2.0205828e+00 
1.2664701e-01 8.8760437e-01 -2.2687305e+00 
1.0632505e-01 2.6322634e-01 -1.4023246e+00 
-2.7033163e-01 -6.8832826e-01 -1.4607022e+00 
1.6082266e-01 8.8852346e-01 -2.1373906e+00 
-2.7271570e-01 -9.6059134e-01 -1.8809375e+00 
5.3139746e-02 1.3079642e-01 -1.4019868e+00 
1.9509796e-01 8.8955505e-01 -2.0060351e+00 
-3.0817352e-01 -9.6191039e-01 -1.7414639e+00 
-6.3429453e-06 -1.4858360e-03 -1.4018746e+00 
2.2950191e-01 8.9070024e-01 -1.8747552e+00 
-3.2480683e-01 -8.2637870e-01 -1.4619065e+00 
-5.3152416e-02 -1.3370454e-01 -1.4019883e+00 
2.6406383e-01 8.9195939e-01 -1.7436411e+00 
-3.4385749e-01 -9.6333454e-01 -1.6022354e+00 
2.9881110e-01 8.9333214e-01 -1.6127822e+00 
-1.0633768e-01 -2.6594464e-01 -1.4023276e+00 
-3.7964794e-01 -9.6486121e-01 -1.4633253e+00 
3.3378841e-01 8.9481748e-01 -1.4822667e+00 
-2.6288219e-02 -9.1973691e-01 -2.7541839e+00 
-6.0685396e-02 -9.2033189e-01 -2.6198315e+00 
-9.5101125e-02 -9.2102789e-01 -2.4852006e+00 
-1.5960132e-01 -3.9829173e-01 -1.4028920e+00 
-1.2956328e-01 -9.2182835e-01 -2.3503683e+00 
-1.6409950e-01 -9.2273575e-01 -2.2154119e+00 
3.6888064e-01 8.9641264e-01 -1.3521814e+00 
3.1556195e-01 7.6687958e-01 -1.3506997e+00 
2.6261423e-01 6.3791027e-01 -1.3494421e+00 
-1.9873764e-01 -9.2375188e-01 -2.0804082e+00 
-2.1298226e-01 -5.3083190e-01 -1.4036803e+00 
2.0985050e-01 5.0942360e-01 -1.3484100e+00 
1.5724728e-01 3.8133701e-01 -1.3476054e+00 
-2.3350562e-01 -9.2487781e-01 -1.9454343e+00 
2.2556163e-02 8.5162523e-01 -2.5596709e+00 
5.6249479e-02 8.5222057e-01 -2.4337019e+00 
8.9949815e-02 8.5292422e-01 -2.3074331e+00 
1.0476322e-01 2.5356669e-01 -1.3470298e+00 
1.2368785e-01 8.5373985e-01 -2.1809597e+00 
-2.6652127e-01 -6.6365156e-01 -1.4046911e+00 
-2.6843164e-01 -9.2611392e-01 -1.8105671e+00 
1.5749330e-01 8.5467009e-01 -2.0543764e+00 
5.2358793e-02 1.2602767e-01 -1.3466844e+00 
1.9139620e-01 8.5571686e-01 -1.9277774e+00 
-3.0354199e-01 -9.2745984e-01 -1.6758835e+00 
-5.8056364e-06 -1.3660365e-03 -1.3465696e+00 
2.2542667e-01 8.5688130e-01 -1.8012560e+00 
-3.2024107e-01 -7.9683728e-01 -1.4059225e+00 
-3.3888038e-01 -9.2891460e-01 -1.5414600e+00 
-5.2370390e-02 -1.2870130e-01 -1.3466858e+00 
2.5961508e-01 8.5816378e-01 -1.6749051e+00 
-1.0477477e-01 -2.5606575e-01 -1.3470327e+00 
-3.7432930e-01 -9.3047551e-01 -1.4073731e+00 
2.9398992e-01 8.5956392e-01 -1.5488164e+00 
-2.4410832e-02 -8.8551220e-01 -2.6516670e+00 
-5.8463224e-02 -8.8610751e-01 -2.5220424e+00 
3.2859681e-01 8.6108067e-01 -1.4230805e+00 
-9.2528639e-02 -8.8680746e-01 -2.3921320e+00 
-1.5725876e-01 -3.8354758e-01 -1.3476096e+00 
-1.2663630e-01 -8.8761560e-01 -2.2620163e+00 
-1.6081485e-01 -8.8853449e-01 -2.1317754e+00 
3.6332297e-01 8.6271117e-01 -1.2977871e+00 
3.1079098e-01 7.3798455e-01 -1.2962725e+00 
-1.9509319e-01 -8.8956599e-01 -2.0014897e+00 
-2.0986188e-01 -5.1123545e-01 -1.3484156e+00 
2.5863265e-01 6.1383475e-01 -1.2949868e+00 
2.0666156e-01 4.9017748e-01 -1.2939316e+00 
-2.2950030e-01 -8.9071121e-01 -1.8712394e+00 
1.5485349e-01 3.6692712e-01 -1.2931089e+00 
2.0692842e-02 8.1811118e-01 -2.4589706e+00 
5.4016394e-02 8.1870531e-01 -2.3377158e+00 
8.7341071e-02 8.1941165e-01 -2.2161543e+00 
1.0316647e-01 2.4399688e-01 -1.2925204e+00 
-2.6262548e-01 -6.3921832e-01 -1.3494490e+00 
-2.6406542e-01 -8.9197053e-01 -1.7411044e+00 
1.2069899e-01 8.2023399e-01 -2.0943836e+00 
1.5412094e-01 8.2117506e-01 -1.9725005e+00 
5.1560352e-02 1.2129884e-01 -1.2921671e+00 
-2.9881591e-01 -8.9334355e-01 -1.6111649e+00 
1.8763810e-01 8.2223682e-01 -1.8506016e+00 
-5.3110620e-06 -1.2558004e-03 -1.2920497e+00 
-3.1557303e-01 -7.6758519e-01 -1.3507080e+00 
2.2128168e-01 8.2342047e-01 -1.7287828e+00 
-3.3379639e-01 -8.9482930e-01 -1.4815005e+00 
-5.1570961e-02 -1.2375670e-01 -1.2921684e+00 
2.5508318e-01 8.2472638e-01 -1.6071391e+00 
-3.6889160e-01 -8.9642497e-01 -1.3521909e+00 
-1.0317704e-01 -2.4629418e-01 -1.2925230e+00 
2.8907224e-01 8.2615416e-01 -1.4857649e+00 
-2.2539814e-02 -8.5163570e-01 -2.5504125e+00 
-5.6235074e-02 -8.5223062e-01 -2.4254686e+00 
-8.9937634e-02 -8.5293391e-01 -2.3002316e+00 
-1.5486399e-01 -3.6895913e-01 -1.2931128e+00 
3.2329543e-01 8.2770273e-01 -1.3647536e+00 
-1.2367811e-01 -8.5374926e-01 -2.1747851e+00 
-1.5748620e-01 -8.5467933e-01 -2.0492125e+00 
3.5764239e-01 8.2936911e-01 -1.2441974e+00 
3.0591439e-01 7.0939488e-01 -1.2426492e+00 
-1.9139188e-01 -8.5572602e-01 -1.9235973e+00 
-2.0667197e-01 -4.9184281e-01 -1.2939367e+00 
2.5456284e-01 5.9001105e-01 -1.2413350e+00 
2.0340191e-01 4.7113017e-01 -1.2402563e+00 
-2.2542523e-01 -8.5689048e-01 -1.7980227e+00 
1.5240658e-01 3.5266350e-01 -1.2394153e+00 
1.8841782e-02 7.8497063e-01 -2.3596648e+00 
5.1782260e-02 7.8556277e-01 -2.2430669e+00 
-2.5864294e-01 -6.1503676e-01 -1.2949932e+00 
1.0153426e-01 2.3452122e-01 -1.2388137e+00 
8.4717763e-02 7.8627115e-01 -2.1261553e+00 
-2.5961656e-01 -8.5817311e-01 -1.6725723e+00 
1.1768190e-01 7.8709970e-01 -2.0090296e+00 
5.0744146e-02 1.1661250e-01 -1.2384525e+00 
1.5070658e-01 7.8805124e-01 -1.8917892e+00 
-2.9399433e-01 -8.5957350e-01 -1.5473290e+00 
1.8382412e-01 7.8912781e-01 -1.7745328e+00 
-4.8559632e-06 -1.1543587e-03 -1.2383324e+00 
-3.1080111e-01 -7.3863254e-01 -1.2962801e+00 
2.1706692e-01 7.9033062e-01 -1.6573590e+00 
-3.2860412e-01 -8.6109062e-01 -1.4223760e+00 
-5.0753846e-02 -1.1887180e-01 -1.2384536e+00 
2.5046762e-01 7.9166009e-01 -1.5403653e+00 
-3.6333299e-01 -8.6272160e-01 -1.2977959e+00 
-1.0154392e-01 -2.3663288e-01 -1.2388161e+00 
2.8405705e-01 7.9311578e-01 -1.4236486e+00 
-2.0678003e-02 -8.1811993e-01 -2.4504568e+00 
-5.4003316e-02 -8.1871367e-01 -2.3301446e+00 
-8.7330012e-02 -8.1941968e-01 -2.2095320e+00 
-1.5241618e-01 -3.5453120e-01 -1.2394189e+00 
3.1788278e-01 7.9469658e-01 -1.3073052e+00 
-1.2069015e-01 -8.2024177e-01 -2.0887055e+00 
-1.5411451e-01 -8.2118266e-01 -1.9677519e+00 
3.5183692e-01 7.9639941e-01 -1.1914300e+00 
-1.8763419e-01 -8.2224436e-01 -1.8467577e+00 
-2.0341142e-01 -4.7266068e-01 -1.2402610e+00 
3.0093048e-01 6.8112189e-01 -1.1898477e+00 
2.5040339e-01 5.6644888e-01 -1.1885045e+00 
2.0007039e-01 4.5228966e-01 -1.1874019e+00 
-2.2128039e-01 -8.2342803e-01 -1.7258095e+00 
1.4990568e-01 3.3855239e-01 -1.1865423e+00 
1.7006008e-02 7.5221704e-01 -2.2617857e+00 
-2.5457225e-01 -5.9111551e-01 -1.2413409e+00 
-2.5508456e-01 -8.2473408e-01 -1.6049939e+00 
4.9549606e-02 7.5280637e-01 -2.1497861e+00 
9.9866008e-02 2.2514417e-01 -1.1859273e+00 
8.2081916e-02 7.5351613e-01 -2.0374654e+00 
1.1463809e-01 7.5435037e-01 -1.9249259e+00 
4.9909891e-02 1.1197123e-01 -1.1855580e+00 
-2.8907628e-01 -8.2616209e-01 -1.4843972e+00 
1.4725120e-01 7.5531203e-01 -1.8122692e+00 
1.7995476e-01 7.5640320e-01 -1.6995965e+00 
-3.0592365e-01 -7.0998986e-01 -1.2426562e+00 
-4.4373159e-06 -1.0610039e-03 -1.1854352e+00 
-3.2330212e-01 -8.2771100e-01 -1.3641057e+00 
2.1278237e-01 7.5762514e-01 -1.5870088e+00 
-4.9918754e-02 -1.1404780e-01 -1.1855591e+00 
2.4576788e-01 7.5897827e-01 -1.4746063e+00 
-3.5765155e-01 -8.2937782e-01 -1.2442055e+00 
-9.9874838e-02 -2.2708498e-01 -1.1859294e+00 
2.7894331e-01 7.6046215e-01 -1.3624886e+00 
-1.8828331e-02 -7.8497782e-01 -2.3518364e+00 
-5.1770403e-02 -7.8556960e-01 -2.2361052e+00 
-8.4707736e-02 -7.8627768e-01 -2.1200660e+00 
-1.4991445e-01 -3.4026887e-01 -1.1865456e+00 
3.1235730e-01 7.6207560e-01 -1.2507548e+00 
-1.1767389e-01 -7.8710599e-01 -2.0038086e+00 
-1.5070075e-01 -7.8805738e-01 -1.8874228e+00 
-1.8382059e-01 -7.8913388e-01 -1.7709983e+00 
-2.0007908e-01 -4.5369611e-01 -1.1874063e+00 
3.4590452e-01 7.6381547e-01 -1.1395028e+00 
2.9583749e-01 6.5317735e-01 -1.1378859e+00 
2.4615281e-01 5.4315826e-01 -1.1365132e+00 
-2.1706578e-01 -7.9033672e-01 -1.6546251e+00 
1.9666582e-01 4.3366421e-01 -1.1353863e+00 
1.4734990e-01 3.2460019e-01 -1.1345078e+00 
-2.5041198e-01 -5.6746356e-01 -1.1885099e+00 
-2.5046890e-01 -7.9166631e-01 -1.5383927e+00 
1.5188653e-02 7.1986438e-01 -2.1653660e+00 
9.8161119e-02 2.1587026e-01 -1.1338791e+00 
4.7321046e-02 7.2045004e-01 -2.0579046e+00 
7.9435624e-02 7.2116048e-01 -1.9501149e+00 
1.1156913e-01 7.2199990e-01 -1.8421013e+00 
4.9057289e-02 1.0737765e-01 -1.1335016e+00 
-2.8406076e-01 -7.9312222e-01 -1.4223910e+00 
1.4375585e-01 7.2297129e-01 -1.7339679e+00 
-3.0093894e-01 -6.8166812e-01 -1.1898541e+00 
-4.0523194e-06 -9.7508475e-04 -1.1333761e+00 
1.7603053e-01 7.2407686e-01 -1.6258186e+00 
-3.1788889e-01 -7.9470332e-01 -1.3067095e+00 
2.0842801e-01 7.2531788e-01 -1.5177567e+00 
-4.9065383e-02 -1.0928604e-01 -1.1335027e+00 
-3.5184529e-01 -7.9640656e-01 -1.1914374e+00 
2.4098338e-01 7.2669480e-01 -1.4098851e+00 
-9.8169182e-02 -2.1765383e-01 -1.1338811e+00 
2.7372994e-01 7.2820714e-01 -1.3023065e+00 
-1.6993834e-02 -7.5222282e-01 -2.2545882e+00 
-4.9538871e-02 -7.5281182e-01 -2.1433854e+00 
-8.2072838e-02 -7.5352130e-01 -2.0318669e+00 
-1.4735791e-01 -3.2617752e-01 -1.1345108e+00 
-1.1463084e-01 -7.5435533e-01 -1.9201257e+00 
3.0671739e-01 7.2985370e-01 -1.1951225e+00 
-1.4724593e-01 -7.5531684e-01 -1.8082547e+00 
-1.7995158e-01 -7.5640795e-01 -1.6963468e+00 
-1.9667376e-01 -4.3495649e-01 -1.1353903e+00 
3.3984305e-01 7.3163120e-01 -1.0884343e+00 
2.9063359e-01 6.2557344e-01 -1.0867821e+00 
2.4180957e-01 5.2014960e-01 -1.0853793e+00 
-2.1278136e-01 -7.5762992e-01 -1.5844952e+00 
1.9318698e-01 4.1526237e-01 -1.0842278e+00 
1.4473832e-01 3.1081356e-01 -1.0833300e+00 
-2.4616065e-01 -5.4409034e-01 -1.1365181e+00 
-2.4576907e-01 -7.5898316e-01 -1.4727927e+00 
9.6418980e-02 2.0670415e-01 -1.0826875e+00 
1.3392954e-02 6.8792712e-01 -2.0704389e+00 
4.5099287e-02 6.8850825e-01 -1.9674543e+00 
7.6781052e-02 6.8921866e-01 -1.8641341e+00 
-2.7894671e-01 -7.6046723e-01 -1.3613324e+00 
4.8186034e-02 1.0283441e-01 -1.0823017e+00 
1.0847666e-01 6.9006268e-01 -1.7605849e+00 
1.4022161e-01 6.9104344e-01 -1.6569132e+00 
-2.9584521e-01 -6.5367873e-01 -1.1378918e+00 
-3.6983846e-06 -8.9600208e-04 -1.0821733e+00 
1.7205195e-01 6.9216318e-01 -1.5532255e+00 
-3.1236289e-01 -7.6208098e-01 -1.2502071e+00 
2.0400382e-01 6.9342324e-01 -1.4496277e+00 
-4.8193421e-02 -1.0458801e-01 -1.0823026e+00 
-3.4591215e-01 -7.6382121e-01 -1.1395097e+00 
2.3611358e-01 6.9482406e-01 -1.3462255e+00 
-9.6426337e-02 -2.0834300e-01 -1.0826893e+00 
2.6841582e-01 6.9636516e-01 -1.2431241e+00 
-1.5177652e-02 -7.1986889e-01 -2.1587492e+00 
-4.7311343e-02 -7.2045425e-01 -2.0520203e+00 
-7.9427418e-02 -7.2116444e-01 -1.9449680e+00 
-1.4474563e-01 -3.1226281e-01 -1.0833327e+00 
-1.1156259e-01 -7.2200365e-01 -1.8376884e+00 
3.0096139e-01 6.9804528e-01 -1.1404286e+00 
-1.4375110e-01 -7.2297492e-01 -1.7302774e+00 
-1.7602767e-01 -7.2408042e-01 -1.6228311e+00 
-1.9319422e-01 -4.1644957e-01 -1.0842315e+00 
3.3365033e-01 6.9986103e-01 -1.0382430e+00 
2.8531688e-01 5.9832281e-01 -1.0365549e+00 
2.3737209e-01 4.9743368e-01 -1.0351216e+00 
-2.0842712e-01 -7.2532147e-01 -1.5154459e+00 
1.8963258e-01 3.9709300e-01 -1.0339450e+00 
1.4206999e-01 2.9719934e-01 -1.0330275e+00 
-2.4181672e-01 -5.2100567e-01 -1.0853839e+00 
-2.4098450e-01 -7.2669849e-01 -1.4082179e+00 
9.4638952e-02 1.9765064e-01 -1.0323709e+00 
1.1622263e-02 6.5642029e-01 -1.9770380e+00 
4.2887124e-02 6.5699598e-01 -1.8784677e+00 
-2.7373305e-01 -7.2821101e-01 -1.3012435e+00 
7.4120438e-02 6.5770561e-01 -1.7795542e+00 
4.7295808e-02 9.8344203e-02 -1.0319766e+00 
1.0536233e-01 6.5855368e-01 -1.6804064e+00 
-2.9064062e-01 -6.2603356e-01 -1.0867875e+00 
1.3664958e-01 6.5954340e-01 -1.5811335e+00 
-3.3731220e-06 -8.2320425e-04 -1.0318454e+00 
-3.0672249e-01 -7.2985784e-01 -1.1946190e+00 
1.6801957e-01 6.6067710e-01 -1.4818442e+00 
-4.7302545e-02 -9.9955306e-02 -1.0319775e+00 
1.9950977e-01 6.6195614e-01 -1.3826473e+00 
-3.3985001e-01 -7.3163567e-01 -1.0884406e+00 
2.3115787e-01 6.6338099e-01 -1.2836511e+00 
-9.4645662e-02 -1.9915628e-01 -1.0323726e+00 
2.6299980e-01 6.6495114e-01 -1.1849639e+00 
-1.3383032e-02 -6.8793049e-01 -2.0643567e+00 
-4.5090531e-02 -6.8851134e-01 -1.9620456e+00 
-7.6773648e-02 -6.8922151e-01 -1.8594032e+00 
-1.4207666e-01 -2.9853070e-01 -1.0330300e+00 
-1.0847075e-01 -6.9006536e-01 -1.7565286e+00 
2.9508759e-01 6.6666529e-01 -1.0866937e+00 
-1.4021733e-01 -6.9104599e-01 -1.6535209e+00 
-1.7204939e-01 -6.9216568e-01 -1.5504795e+00 
-1.8963918e-01 -3.9818348e-01 -1.0339484e+00 
3.2732407e-01 6.6851993e-01 -9.8894777e-01 
2.7988541e-01 5.7143859e-01 -9.8722316e-01 
-2.0400304e-01 -6.9342576e-01 -1.4475036e+00 
2.3283873e-01 4.7502170e-01 -9.8575881e-01 
1.8600133e-01 3.7916526e-01 -9.8455662e-01 
-2.3737861e-01 -4.9821979e-01 -1.0351258e+00 
-2.3611462e-01 -6.9482668e-01 -1.3446930e+00 
1.3934392e-01 2.8376464e-01 -9.8361913e-01 
9.2820376e-02 1.8871468e-01 -9.8294825e-01 
9.8800448e-03 6.2535947e-01 -1.8851978e+00 
-2.6841868e-01 -6.9636794e-01 -1.2421471e+00 
4.0687450e-02 6.2592878e-01 -1.7909777e+00 
7.1456095e-02 6.2663688e-01 -1.6964066e+00 
4.6386282e-02 9.3909771e-02 -9.8254534e-01 
-2.8532329e-01 -5.9874497e-01 -1.0365599e+00 
1.0222788e-01 6.2748841e-01 -1.6015961e+00 
1.3304091e-01 6.2848668e-01 -1.5066574e+00 
-3.0096605e-01 -6.9804830e-01 -1.1399658e+00 
-3.0743306e-06 -7.5618353e-04 -9.8241120e-01 
1.6393395e-01 6.2963409e-01 -1.4117021e+00 
-4.6392423e-02 -9.5389690e-02 -9.8254612e-01 
-3.3365667e-01 -6.9986437e-01 -1.0382488e+00 
1.9494584e-01 6.3093207e-01 -1.3168413e+00 
2.2611564e-01 6.3238107e-01 -1.2221865e+00 
-9.2826491e-02 -1.9009767e-01 -9.8294982e-01 
2.5748069e-01 6.3398057e-01 -1.1278487e+00 
-1.1613332e-02 -6.5642263e-01 -1.9714483e+00 
-4.2879240e-02 -6.5699807e-01 -1.8734969e+00 
-7.4113771e-02 -6.5770749e-01 -1.7752063e+00 
-1.3934999e-01 -2.8498745e-01 -9.8362147e-01 
-1.0535701e-01 -6.5855539e-01 -1.6766785e+00 
-1.3664573e-01 -6.5954500e-01 -1.5780158e+00 
2.8909420e-01 6.3572923e-01 -1.0339389e+00 
-1.6801728e-01 -6.6067864e-01 -1.4793205e+00 
-1.8600734e-01 -3.8016671e-01 -9.8455972e-01 
3.2086194e-01 6.3762341e-01 -9.4056798e-01 
-1.9950909e-01 -6.6195771e-01 -1.3806952e+00 
2.7433715e-01 5.4493439e-01 -9.3880618e-01 
2.2820780e-01 4.5292529e-01 -9.3731019e-01 
1.8229186e-01 3.6148869e-01 -9.3608196e-01 
-2.3284467e-01 -4.7574342e-01 -9.8576267e-01 
-2.3115884e-01 -6.6338264e-01 -1.2822427e+00 
1.3655908e-01 2.7051678e-01 -9.3512413e-01 
9.0962572e-02 1.7990137e-01 -9.3443867e-01 
-2.6300242e-01 -6.6495295e-01 -1.1840660e+00 
8.1698816e-03 5.9476083e-01 -1.7949527e+00 
3.8503253e-02 5.9532280e-01 -1.7050175e+00 
4.5457117e-02 8.9533918e-02 -9.3402697e-01 
6.8790414e-02 5.9602857e-01 -1.6147235e+00 
-2.7989125e-01 -5.7182582e-01 -9.8722776e-01 
9.9075092e-02 5.9688294e-01 -1.5241845e+00 
-2.9509183e-01 -6.6666732e-01 -1.0862683e+00 
-2.7999863e-06 -6.9447247e-04 -9.3388988e-01 
1.2939678e-01 5.9788933e-01 -1.4335143e+00 
1.5979566e-01 5.9905022e-01 -1.3428269e+00 
-4.5462709e-02 -9.0893047e-02 -9.3402769e-01 
-3.2732984e-01 -6.6852224e-01 -9.8895311e-01 
1.9031199e-01 6.0036708e-01 -1.2522363e+00 
-9.0968140e-02 -1.8117144e-01 -9.3444010e-01 
2.2098626e-01 6.0184036e-01 -1.1618564e+00 
-9.8720253e-03 -6.2536090e-01 -1.8800615e+00 
2.5185724e-01 6.0346953e-01 -1.0718014e+00 
-4.0680367e-02 -6.2592998e-01 -1.7864101e+00 
-7.1450106e-02 -6.2663788e-01 -1.6924115e+00 
-1.3656460e-01 -2.7163967e-01 -9.3512628e-01 
-1.0222311e-01 -6.2748925e-01 -1.5981706e+00 
-1.3303746e-01 -6.2848742e-01 -1.5037927e+00 
2.8297939e-01 6.0525319e-01 -9.8218564e-01 
-1.6393191e-01 -6.2963479e-01 -1.4093831e+00 
-1.8229733e-01 -3.6240816e-01 -9.3608482e-01 
-1.9494525e-01 -6.3093278e-01 -1.3150477e+00 
3.1426148e-01 6.0718759e-01 -8.9312316e-01 
2.6867001e-01 5.1882436e-01 -8.9132350e-01 
2.2347755e-01 4.3115649e-01 -8.8979529e-01 
1.7850275e-01 3.4407318e-01 -8.8854054e-01 
-2.2821320e-01 -4.5358773e-01 -9.3731374e-01 
-2.2611654e-01 -6.3238186e-01 -1.2208923e+00 
1.3371441e-01 2.5746341e-01 -8.8756200e-01 
8.9064833e-02 1.7121599e-01 -8.8686168e-01 
-2.5748309e-01 -6.3398151e-01 -1.1270235e+00 
6.4954758e-03 5.6464114e-01 -1.7063377e+00 
-2.7434246e-01 -5.4528949e-01 -9.3881041e-01 
3.6337622e-02 5.6519476e-01 -1.6206207e+00 
4.4507959e-02 8.5219515e-02 -8.8644103e-01 
6.6125862e-02 5.6589739e-01 -1.5345369e+00 
-2.8909807e-01 -6.3573037e-01 -1.0335481e+00 
9.5905822e-02 5.6675398e-01 -1.4482025e+00 
-2.5482308e-06 -6.3764068e-04 -8.8630094e-01 
1.2571841e-01 5.6776805e-01 -1.3617338e+00 
1.5560529e-01 5.6894216e-01 -1.2752470e+00 
-3.2086718e-01 -6.3762482e-01 -9.4057288e-01 
-4.4513048e-02 -8.6467406e-02 -8.8644169e-01 
1.8560819e-01 5.7027783e-01 -1.1888588e+00 
-8.9069900e-02 -1.7238205e-01 -8.8686300e-01 
2.1576906e-01 5.7177552e-01 -1.1026860e+00 
-8.1626998e-03 -5.9476145e-01 -1.7902341e+00 
-3.8496907e-02 -5.9532320e-01 -1.7008214e+00 
2.4612817e-01 5.7343468e-01 -1.0168459e+00 
-1.3371944e-01 -2.5849427e-01 -8.8756397e-01 
-6.8785047e-02 -5.9602879e-01 -1.6110532e+00 
-9.9070821e-02 -5.9688302e-01 -1.5210376e+00 
-1.2939370e-01 -5.9788932e-01 -1.4308825e+00 
2.7674126e-01 5.7525385e-01 -9.3145573e-01 
-1.5979384e-01 -5.9905016e-01 -1.3406966e+00 
-1.7850773e-01 -3.4491717e-01 -8.8854317e-01 
-1.9031149e-01 -6.0036703e-01 -1.2505885e+00 
3.0752020e-01 5.7722915e-01 -8.4663326e-01 
2.6288182e-01 4.9312318e-01 -8.4479504e-01 
2.1864616e-01 4.0972786e-01 -8.4323400e-01 
-2.2348246e-01 -4.3176436e-01 -8.8979855e-01 
1.7463257e-01 3.2692899e-01 -8.4195224e-01 
-2.2098710e-01 -6.0184039e-01 -1.1606675e+00 
1.3080884e-01 2.4461241e-01 -8.4095259e-01 
-2.5185943e-01 -6.0346969e-01 -1.0710434e+00 
8.7126432e-02 1.6266398e-01 -8.4023714e-01 
-2.6867483e-01 -5.1914988e-01 -8.9132739e-01 
4.3538445e-02 8.0969512e-02 -8.3980738e-01 
4.8606522e-03 5.3501778e-01 -1.6193881e+00 
3.4193744e-02 5.3556202e-01 -1.5378213e+00 
6.3464986e-02 5.3626067e-01 -1.4558797e+00 
-2.8298291e-01 -6.0525354e-01 -9.8182658e-01 
9.2721970e-02 5.3711882e-01 -1.3736817e+00 
-2.3173613e-06 -5.8529186e-04 -8.3966424e-01 
1.2200707e-01 5.3814012e-01 -1.2913457e+00 
-3.1426625e-01 -6.0718818e-01 -8.9312767e-01 
1.5136347e-01 5.3932719e-01 -1.2089908e+00 
-4.3543073e-02 -8.2114939e-02 -8.3980799e-01 
1.8083441e-01 5.4068160e-01 -1.1267360e+00 
-8.7131038e-02 -1.6373426e-01 -8.4023835e-01 
2.1046338e-01 5.4220383e-01 -1.0447010e+00 
-6.4890639e-03 -5.6464103e-01 -1.7020040e+00 
-3.6331952e-02 -5.6519445e-01 -1.6167669e+00 
-6.6121067e-02 -5.6589692e-01 -1.5311661e+00 
-1.3081341e-01 -2.4555851e-01 -8.4095441e-01 
2.4029216e-01 5.4389330e-01 -9.6300592e-01 
-9.5902009e-02 -5.6675337e-01 -1.4453124e+00 
-1.2571567e-01 -5.6776736e-01 -1.3593167e+00 
2.7037784e-01 5.4574849e-01 -8.8177138e-01 
-1.5560369e-01 -5.6894144e-01 -1.2732904e+00 
-1.7463709e-01 -3.2770346e-01 -8.4195465e-01 
-1.8560777e-01 -5.7027711e-01 -1.1873454e+00 
3.0063549e-01 5.4776541e-01 -8.0111858e-01 
2.5697035e-01 4.6784609e-01 -7.9924106e-01 
2.1371176e-01 3.8865241e-01 -7.9764658e-01 
-2.1865062e-01 -4.1028546e-01 -8.4323700e-01 
-2.1576985e-01 -5.7177487e-01 -1.1015941e+00 
1.7067980e-01 3.1006681e-01 -7.9633730e-01 
1.2784122e-01 2.3197202e-01 -7.9531614e-01 
-2.4613018e-01 -5.7343415e-01 -1.0161497e+00 
8.5146614e-02 1.5425102e-01 -7.9458527e-01 
-2.6288620e-01 -4.9342147e-01 -8.4479861e-01 
4.2548199e-02 7.6786940e-02 -7.9414624e-01 
3.2693602e-03 5.0590879e-01 -1.5341391e+00 
-2.7674447e-01 -5.7525349e-01 -9.3112596e-01 
3.2074910e-02 5.0644259e-01 -1.4566534e+00 
6.0810417e-02 5.0713639e-01 -1.3787846e+00 
8.9525499e-02 5.0799542e-01 -1.3006534e+00 
-2.1058196e-06 -5.3706104e-04 -7.9399998e-01 
1.1826405e-01 5.0902347e-01 -1.2223806e+00 
-3.0752452e-01 -5.7722902e-01 -8.4663740e-01 
1.4707082e-01 5.1022324e-01 -1.1440874e+00 
-4.2552404e-02 -7.7837964e-02 -7.9414680e-01 
1.7599062e-01 5.1159631e-01 -1.0658956e+00 
-8.5150799e-02 -1.5523304e-01 -7.9458638e-01 
2.0506850e-01 5.1314321e-01 -9.8792741e-01 
-4.8549477e-03 -5.3501703e-01 -1.6154091e+00 
-3.4188696e-02 -5.3556109e-01 -1.5342829e+00 
-6.3460717e-02 -5.3625959e-01 -1.4527848e+00 
-1.2784537e-01 -2.3284003e-01 -7.9531781e-01 
2.3434785e-01 5.1486331e-01 -9.1030599e-01 
-9.2718577e-02 -5.3711761e-01 -1.3710280e+00 
-1.2200463e-01 -5.3813883e-01 -1.2891265e+00 
2.6388711e-01 5.1675506e-01 -8.3315520e-01 
-1.5136206e-01 -5.3932588e-01 -1.2071944e+00 
-1.7068391e-01 -3.1077724e-01 -7.9633951e-01 
-1.8083406e-01 -5.4068030e-01 -1.1253465e+00 
2.9360466e-01 5.1881432e-01 -7.5659976e-01 
2.5093328e-01 4.4300892e-01 -7.5468220e-01 
2.0867242e-01 3.6794369e-01 -7.5305364e-01 
-2.1371580e-01 -3.8916372e-01 -7.9764932e-01 
-2.1046412e-01 -5.4220259e-01 -1.0436985e+00 
1.6664290e-01 2.9349774e-01 -7.5171631e-01 
1.2481039e-01 2.1955076e-01 -7.5067325e-01 
-2.4029400e-01 -5.4389217e-01 -9.6236674e-01 
8.3124603e-02 1.4598296e-01 -7.4992667e-01 
-2.5697432e-01 -4.6811931e-01 -7.9924434e-01 
4.1536833e-02 7.2674926e-02 -7.4947818e-01 
-2.7038076e-01 -5.4574752e-01 -8.8146861e-01 
1.7256755e-03 4.7733288e-01 -1.4506265e+00 
2.9984514e-02 4.7785514e-01 -1.3771513e+00 
5.8164865e-02 4.7854318e-01 -1.3032848e+00 
-1.9121819e-06 -4.9261207e-04 -7.4932875e-01 
8.6318436e-02 4.7940241e-01 -1.2291497e+00 
-3.0063940e-01 -5.4776464e-01 -8.0112238e-01 
1.1449068e-01 4.8043672e-01 -1.1548689e+00 
-4.1540651e-02 -7.3638951e-02 -7.4947870e-01 
1.4272798e-01 4.8164889e-01 -1.0805661e+00 
1.7107677e-01 4.8304056e-01 -1.0063654e+00 
-8.3128402e-02 -1.4688366e-01 -7.4992769e-01 
1.9958371e-01 4.8461225e-01 -9.3239162e-01 
-3.2643057e-03 -5.0590748e-01 -1.5304872e+00 
-3.2070433e-02 -5.0644112e-01 -1.4534058e+00 
-6.0806630e-02 -5.0713477e-01 -1.3759440e+00 
-1.2481416e-01 -2.2034681e-01 -7.5067478e-01 
-8.9522493e-02 -5.0799370e-01 -1.2982179e+00 
2.2829381e-01 4.8636332e-01 -8.5877087e-01 
-1.1826189e-01 -5.0902167e-01 -1.2203438e+00 
-1.4706958e-01 -5.1022140e-01 -1.1424387e+00 
-1.6664662e-01 -2.9414916e-01 -7.5171834e-01 
2.5726697e-01 4.8829215e-01 -7.8563019e-01 
-1.7599034e-01 -5.1159450e-01 -1.0646203e+00 
2.8642493e-01 4.9039449e-01 -7.1309787e-01 
2.4476822e-01 4.1862812e-01 -7.1113950e-01 
-2.0867608e-01 -3.6841236e-01 -7.5305616e-01 
-2.0506920e-01 -5.1314145e-01 -9.8700728e-01 
2.0352614e-01 3.4761580e-01 -7.0947620e-01 
1.6252027e-01 2.7723335e-01 -7.0811029e-01 
1.2171515e-01 2.0735753e-01 -7.0704490e-01 
-2.3434952e-01 -5.1486165e-01 -9.0971934e-01 
8.1059597e-02 1.3786593e-01 -7.0628231e-01 
-2.5093687e-01 -4.4325906e-01 -7.5468521e-01 
-2.6388975e-01 -5.1675355e-01 -8.3287731e-01 
4.0503946e-02 6.8636700e-02 -7.0582419e-01 
2.3380149e-04 4.4930945e-01 -1.3688856e+00 
2.7926057e-02 4.4981903e-01 -1.2993493e+00 
5.5531123e-02 4.5050039e-01 -1.2294134e+00 
-1.7351492e-06 -4.5163532e-04 -7.0567153e-01 
8.3102868e-02 4.5135910e-01 -1.1592025e+00 
-2.9360820e-01 -5.1881299e-01 -7.5660325e-01 
1.1068836e-01 4.5239916e-01 -1.0888416e+00 
-4.0507410e-02 -6.9520522e-02 -7.0582466e-01 
1.3833565e-01 4.5362343e-01 -1.0184565e+00 
1.6609283e-01 4.5503361e-01 -9.4817359e-01 
-8.1063042e-02 -1.3869165e-01 -7.0628325e-01 
1.9400825e-01 4.5663021e-01 -8.7812043e-01 
-1.7212181e-03 -4.7733108e-01 -1.4472761e+00 
-2.9980562e-02 -4.7785319e-01 -1.3741718e+00 
-5.8161520e-02 -4.7854109e-01 -1.3006788e+00 
-1.2171857e-01 -2.0808725e-01 -7.0704630e-01 
-8.6315784e-02 -4.7940023e-01 -1.2269153e+00 
2.2212860e-01 4.5841258e-01 -8.0842576e-01 
-1.1448879e-01 -4.8043447e-01 -1.1530003e+00 
-1.4272691e-01 -4.8164661e-01 -1.0790535e+00 
-1.6252364e-01 -2.7783038e-01 -7.0811215e-01 
2.5051525e-01 4.6037906e-01 -7.3921979e-01 
-1.7107655e-01 -4.8303829e-01 -1.0051954e+00 
2.7909345e-01 4.6252523e-01 -6.7063434e-01 
-2.0352945e-01 -3.4804517e-01 -7.0947851e-01 
2.3847271e-01 3.9472078e-01 -6.6863437e-01 
-1.9958436e-01 -4.8461003e-01 -9.3154748e-01 
1.9827086e-01 3.2768339e-01 -6.6693566e-01 
1.5831025e-01 2.6128568e-01 -6.6554062e-01 
1.1855427e-01 1.9540159e-01 -6.6445247e-01 
-2.2829534e-01 -4.8636120e-01 -8.5823267e-01 
7.8950771e-02 1.2990624e-01 -6.6367358e-01 
-2.4477147e-01 -4.1885700e-01 -7.1114226e-01 
-2.5726936e-01 -4.8829017e-01 -7.8537526e-01 
3.9449126e-02 6.4675603e-02 -6.6320564e-01 
-1.2019305e-03 4.2185859e-01 -1.2889520e+00 
2.5903143e-02 4.2235433e-01 -1.2232820e+00 
-1.5735367e-06 -4.1384557e-04 -6.6304970e-01 
5.2912071e-02 4.2302805e-01 -1.1572038e+00 
-2.8642813e-01 -4.9039268e-01 -7.1310107e-01 
7.9880946e-02 4.2388551e-01 -1.0908440e+00 
1.0685849e-01 4.2493079e-01 -1.0243296e+00 
-3.9452267e-02 -6.5485460e-02 -6.6320607e-01 
1.3389449e-01 4.2616686e-01 -9.5778837e-01 
-7.8953893e-02 -1.3066283e-01 -6.6367443e-01 
1.6103876e-01 4.2759544e-01 -8.9134886e-01 
1.8834135e-01 4.2921709e-01 -8.2514101e-01 
-2.2989237e-04 -4.4930722e-01 -1.3658134e+00 
-2.7922586e-02 -4.4981666e-01 -1.2966173e+00 
-5.5528185e-02 -4.5049790e-01 -1.2270238e+00 
-1.1855736e-01 -1.9607014e-01 -6.6445376e-01 
-8.3100541e-02 -4.5135652e-01 -1.1571536e+00 
2.1585072e-01 4.3103110e-01 -7.5929626e-01 
-1.1068670e-01 -4.5239652e-01 -1.0871282e+00 
-1.3833472e-01 -4.5362077e-01 -1.0170695e+00 
-1.5831330e-01 -2.6183255e-01 -6.6554233e-01 
2.4362973e-01 4.3303576e-01 -6.9394783e-01 
-1.6609266e-01 -4.5503095e-01 -9.4710079e-01 
-1.9827386e-01 -3.2807653e-01 -6.6693778e-01 
2.7160725e-01 4.3522655e-01 -6.2923101e-01 
-1.9400886e-01 -4.5662761e-01 -8.7734640e-01 
2.3204422e-01 3.7130465e-01 -6.2718863e-01 
1.9290447e-01 3.0816173e-01 -6.2545384e-01 
1.5401115e-01 2.4566726e-01 -6.2402911e-01 
-2.2212999e-01 -4.5841006e-01 -8.0793227e-01 
1.1532646e-01 1.8369258e-01 -6.2291777e-01 
-2.3847564e-01 -3.9493008e-01 -6.6863690e-01 
7.6797273e-02 1.2211053e-01 -6.2212226e-01 
-2.5051741e-01 -4.6037666e-01 -7.3898603e-01 
3.8371948e-02 6.0795098e-02 -6.2164433e-01 
-2.5770609e-03 3.9500117e-01 -1.2108612e+00 
2.3919483e-02 3.9548186e-01 -1.1489836e+00 
-1.4262634e-06 -3.7898006e-04 -6.2148503e-01 
-2.7909633e-01 -4.6252300e-01 -6.7063728e-01 
5.0310670e-02 3.9614697e-01 -1.0866893e+00 
7.6654881e-02 3.9700240e-01 -1.0241066e+00 
1.0300255e-01 3.9805237e-01 -9.6136425e-01 
-3.8374794e-02 -6.1536714e-02 -6.2164472e-01 
1.2940524e-01 3.9929991e-01 -8.9859185e-01 
-7.6800101e-02 -1.2280332e-01 -6.2212305e-01 
1.5591452e-01 4.0074680e-01 -8.3592002e-01 
1.2053361e-03 -4.2185601e-01 -1.2861367e+00 
1.8258223e-01 4.0239360e-01 -7.7348088e-01 
-2.5900114e-02 -4.2235161e-01 -1.2207783e+00 
-5.2909506e-02 -4.2302523e-01 -1.1550139e+00 
-1.1532926e-01 -1.8430469e-01 -6.2291895e-01 
-7.9878916e-02 -4.2388260e-01 -1.0889665e+00 
2.0945861e-01 4.0423959e-01 -7.1140836e-01 
-1.0685706e-01 -4.2492783e-01 -1.0227595e+00 
-1.3389370e-01 -4.2616387e-01 -9.5651736e-01 
-1.5401391e-01 -2.4616788e-01 -6.2403068e-01 
2.3660811e-01 4.0628301e-01 -6.4983858e-01 
-1.6103864e-01 -4.2759246e-01 -8.9036576e-01 
-1.9290717e-01 -3.0852145e-01 -6.2545578e-01 
-1.8834192e-01 -4.2921415e-01 -8.2443171e-01 
2.6396329e-01 4.0851918e-01 -5.8891016e-01 
2.2548011e-01 3.4839820e-01 -5.8682455e-01 
1.8742477e-01 2.8906669e-01 -5.8505298e-01 
1.4962122e-01 2.3039118e-01 -5.8359800e-01 
-2.1585198e-01 -4.3102824e-01 -7.5884403e-01 
1.1203042e-01 1.7224056e-01 -5.8246304e-01 
-2.3204685e-01 -3.7149591e-01 -6.2719096e-01 
7.4598232e-02 1.1448565e-01 -5.8165060e-01 
-2.4363168e-01 -4.3303302e-01 -6.9373362e-01 
3.7271977e-02 5.6998777e-02 -5.8116248e-01 
-2.7160984e-01 -4.3522395e-01 -6.2923371e-01 
-1.2923413e-06 -3.4679673e-04 -5.8099978e-01 
-3.8870027e-03 3.6875880e-01 -1.1346484e+00 
2.1978893e-02 3.6922320e-01 -1.0764884e+00 
4.7729967e-02 3.6987869e-01 -1.0179032e+00 
7.3426951e-02 3.7073131e-01 -9.5902250e-01 
-3.7274555e-02 -5.7677403e-02 -5.8116284e-01 
9.9122040e-02 3.7178541e-01 -8.9997678e-01 
1.2486861e-01 3.7304408e-01 -8.4089720e-01 
-7.4600792e-02 -1.1511957e-01 -5.8165132e-01 
1.5072007e-01 3.7450917e-01 -7.8191621e-01 
2.5800043e-03 -3.9499828e-01 -1.2082830e+00 
-2.3916859e-02 -3.9547885e-01 -1.1466909e+00 
1.7673006e-01 3.7618124e-01 -7.2316790e-01 
-5.0308447e-02 -3.9614386e-01 -1.0846839e+00 
-1.1203295e-01 -1.7280059e-01 -5.8246412e-01 
-7.6653124e-02 -3.9699921e-01 -1.0223872e+00 
-1.0300132e-01 -3.9804913e-01 -9.5992638e-01 
2.0295069e-01 3.7805956e-01 -6.6478847e-01 
-1.2940457e-01 -3.9929664e-01 -8.9742795e-01 
-1.4962371e-01 -2.3084910e-01 -5.8359944e-01 
2.2944802e-01 3.8014229e-01 -6.0691673e-01 
-1.5591444e-01 -4.0074355e-01 -8.3501977e-01 
-1.8742720e-01 -2.8939559e-01 -5.8505476e-01 
-1.8258276e-01 -4.0239038e-01 -7.7283136e-01 
2.5615843e-01 3.8242464e-01 -5.4969449e-01 
2.1877769e-01 3.2602061e-01 -5.4756482e-01 
1.8182953e-01 2.7041484e-01 -5.4575576e-01 
1.4513867e-01 2.1547108e-01 -5.4426997e-01 
-2.0945976e-01 -4.0423645e-01 -7.1099425e-01 
1.0866481e-01 1.6105603e-01 -5.4311095e-01 
-2.2548247e-01 -3.4857282e-01 -5.8682669e-01 
7.2352754e-02 1.0703881e-01 -5.4228127e-01 
-2.3660986e-01 -4.0627997e-01 -6.4964242e-01 
3.6148766e-02 5.3290378e-02 -5.4178278e-01 
-2.6396561e-01 -4.0851627e-01 -5.8891263e-01 
-1.1708631e-06 -3.1707262e-04 -5.4161661e-01 
-5.1270431e-03 3.4315385e-01 -1.0603486e+00 
2.0085294e-02 3.4360071e-01 -1.0058306e+00 
4.5173091e-02 3.4424553e-01 -9.5087873e-01 
7.0199494e-02 3.4509454e-01 -8.9562413e-01 
-3.6151101e-02 -5.3910826e-02 -5.4178311e-01 
9.5218500e-02 3.4615219e-01 -8.4019863e-01 
1.2028537e-01 3.4742166e-01 -7.8473486e-01 
-7.2355070e-02 -1.0761834e-01 -5.4228193e-01 
1.4545536e-01 3.4890484e-01 -7.2936680e-01 
3.8895220e-03 -3.6875564e-01 -1.1322894e+00 
-2.1976640e-02 -3.6921994e-01 -1.0743906e+00 
-4.7728056e-02 -3.6987533e-01 -1.0160683e+00 
-1.0866709e-01 -1.6156796e-01 -5.4311193e-01 
1.7078402e-01 3.5060230e-01 -6.7423023e-01 
-7.3425444e-02 -3.7072789e-01 -9.5744935e-01 
-9.9120986e-02 -3.7178193e-01 -8.9866117e-01 
1.9632533e-01 3.5251327e-01 -6.1946337e-01 
-1.2486805e-01 -3.7304059e-01 -8.3983228e-01 
-1.4514091e-01 -2.1588957e-01 -5.4427129e-01 
-1.5072003e-01 -3.7450569e-01 -7.8109253e-01 
2.2214703e-01 3.5463589e-01 -5.6520741e-01 
-1.8183171e-01 -2.7071527e-01 -5.4575740e-01 
-1.7673056e-01 -3.7617780e-01 -7.2257362e-01 
2.4818943e-01 3.5696522e-01 -5.1160715e-01 
2.1193421e-01 3.0419183e-01 -5.0943259e-01 
1.7611644e-01 2.5222341e-01 -5.0758535e-01 
-2.0295173e-01 -3.7805618e-01 -6.6440959e-01 
1.4056166e-01 2.0092119e-01 -5.0606817e-01 
1.0522824e-01 1.5014996e-01 -5.0488465e-01 
-2.1877981e-01 -3.2617988e-01 -5.4756678e-01 
7.0059923e-02 9.9777482e-02 -5.0403742e-01 
-2.2944959e-01 -3.8013901e-01 -6.0673726e-01 
3.5001859e-02 4.9673785e-02 -5.0352839e-01 
-2.5616050e-01 -3.8242148e-01 -5.4969676e-01 
-1.0609894e-06 -2.8960237e-04 -5.0335869e-01 
-6.2923443e-03 3.1820953e-01 -9.8799685e-01 
1.8242712e-02 3.1863753e-01 -9.3704434e-01 
4.2643256e-02 3.1927063e-01 -8.8564915e-01 
6.6974907e-02 3.2011522e-01 -8.3394381e-01 
-3.5003974e-02 -5.0240469e-02 -5.0352870e-01 
9.1293517e-02 3.2117583e-01 -7.8206129e-01 
1.1565627e-01 3.2245576e-01 -7.3013542e-01 
-7.0062018e-02 -1.0030676e-01 -5.0403803e-01 
1.4012036e-01 3.2395691e-01 -6.7830140e-01 
5.1291732e-03 -3.4315049e-01 -1.0581923e+00 
-2.0083382e-02 -3.4359724e-01 -1.0039131e+00 
-4.5171467e-02 -3.4424198e-01 -9.4920157e-01 
-1.0523030e-01 -1.5061743e-01 -5.0488556e-01 
1.6474323e-01 3.2567987e-01 -6.2669639e-01 
-7.0198214e-02 -3.4509093e-01 -8.9418618e-01 
-9.5217612e-02 -3.4614854e-01 -8.3899611e-01 
1.8958085e-01 3.2762386e-01 -5.7546024e-01 
-1.2028490e-01 -3.4741799e-01 -7.8376149e-01 
-1.4056367e-01 -2.0130325e-01 -5.0606938e-01 
-1.4545536e-01 -3.4890118e-01 -7.2861393e-01 
2.1470264e-01 3.2978694e-01 -5.2473620e-01 
-1.7611840e-01 -2.5249755e-01 -5.0758685e-01 
-1.7078448e-01 -3.5059867e-01 -6.7368706e-01 
2.4005296e-01 3.3216406e-01 -4.7467177e-01 
2.0494681e-01 2.8293260e-01 -4.7245147e-01 
1.7028314e-01 2.3451038e-01 -4.7056535e-01 
-1.9632627e-01 -3.5250971e-01 -6.1911707e-01 
1.3588831e-01 1.8675636e-01 -4.6901623e-01 
-2.1193610e-01 -3.0433694e-01 -5.0943438e-01 
1.0171932e-01 1.3953379e-01 -4.6780779e-01 
-2.2214844e-01 -3.5463241e-01 -5.6504338e-01 
6.7718808e-02 9.2709504e-02 -4.6694272e-01 
3.3830791e-02 4.6153050e-02 -4.6642297e-01 
-2.4819126e-01 -3.5696186e-01 -5.1160924e-01 
-9.6193372e-07 -2.6419695e-04 -4.6624968e-01 
-7.3779450e-03 2.9394985e-01 -9.1762778e-01 
1.6455280e-02 2.9435767e-01 -8.7016341e-01 
4.0143759e-02 2.9497796e-01 -8.2224756e-01 
-3.3832707e-02 -4.6670010e-02 -4.6642324e-01 
6.3755647e-02 2.9581727e-01 -7.7401385e-01 
8.7348706e-02 2.9688028e-01 -7.2559629e-01 
1.1098210e-01 2.9817032e-01 -6.7712960e-01 
-6.7720704e-02 -9.3192310e-02 -4.6694328e-01 
1.3471501e-01 2.9968934e-01 -6.2874986e-01 
6.2941177e-03 -3.1820601e-01 -9.8602813e-01 
-1.8241113e-02 -3.1863392e-01 -9.3529364e-01 
-4.2641894e-02 -3.1926694e-01 -8.8411793e-01 
-1.0172118e-01 -1.3996016e-01 -4.6780862e-01 
1.5860684e-01 3.0143793e-01 -5.8059519e-01 
-6.6973835e-02 -3.2011146e-01 -8.3263100e-01 
-9.1292779e-02 -3.2117204e-01 -7.8096344e-01 
1.8271554e-01 3.0341528e-01 -5.3280665e-01 
-1.1565590e-01 -3.2245195e-01 -7.2924679e-01 
-1.3589012e-01 -1.8710474e-01 -4.6901734e-01 
-1.4012038e-01 -3.2395311e-01 -6.7761409e-01 
2.0711231e-01 3.0561940e-01 -4.8552916e-01 
-1.7028489e-01 -2.3476022e-01 -4.7056673e-01 
-1.6474367e-01 -3.2567610e-01 -6.2620052e-01 
2.3174562e-01 3.0804514e-01 -4.3891245e-01 
1.9781259e-01 2.6226451e-01 -4.3664557e-01 
1.6432724e-01 2.1729449e-01 -4.3471990e-01 
-1.8958170e-01 -3.2762014e-01 -5.7514410e-01 
1.3111671e-01 1.7299211e-01 -4.3313830e-01 
-2.0494849e-01 -2.8306463e-01 -4.7245312e-01 
9.8136628e-02 1.2921950e-01 -4.3190453e-01 
-2.1470390e-01 -3.2978330e-01 -5.2458647e-01 
6.5328464e-02 8.5843056e-02 -4.3102133e-01 
3.2635090e-02 4.2732393e-02 -4.3049067e-01 
-2.4005458e-01 -3.3216053e-01 -4.7467369e-01 
-8.7294536e-07 -2.4068238e-04 -4.3031374e-01 
-8.3787585e-03 2.7039966e-01 -8.4927610e-01 
1.4727238e-02 2.7078592e-01 -8.0522176e-01 
3.7677979e-02 2.7139229e-01 -7.6070705e-01 
-3.2636829e-02 -4.3203331e-02 -4.3049093e-01 
6.0544225e-02 2.7222549e-01 -7.1586661e-01 
8.3385710e-02 2.7329031e-01 -6.7083523e-01 
-6.5330180e-02 -8.6282847e-02 -4.3102184e-01 
1.0626365e-01 2.7459014e-01 -6.2574826e-01 
1.2923924e-01 2.7612697e-01 -5.8074223e-01 
7.3793916e-03 -2.9394620e-01 -9.1583284e-01 
-1.6453966e-02 -2.9435393e-01 -8.6856727e-01 
-4.0142637e-02 -2.9497415e-01 -8.2085153e-01 
-9.8138307e-02 -1.2960783e-01 -4.3190529e-01 
-6.3754765e-02 -2.9581341e-01 -7.7281698e-01 
1.5237391e-01 2.7790134e-01 -5.3595577e-01 
-8.7348104e-02 -2.9687638e-01 -7.2459542e-01 
-1.1098181e-01 -2.9816641e-01 -6.7631948e-01 
-1.3111834e-01 -1.7330931e-01 -4.3313932e-01 
1.7572764e-01 2.7991242e-01 -4.9153061e-01 
-1.3471506e-01 -2.9968544e-01 -6.2812329e-01 
1.9937341e-01 2.8215817e-01 -4.4761278e-01 
-1.6432880e-01 -2.1752184e-01 -4.3472117e-01 
-1.5860723e-01 -3.0143406e-01 -5.8014315e-01 
2.2326390e-01 2.8463334e-01 -4.0435380e-01 
1.9052858e-01 2.4221002e-01 -4.0203954e-01 
-1.8271630e-01 -3.0341146e-01 -5.3251847e-01 
1.5824629e-01 2.0059528e-01 -4.0007365e-01 
1.2624494e-01 1.5964464e-01 -3.9845905e-01 
-1.9781408e-01 -2.6238445e-01 -4.3664710e-01 
9.4478713e-02 1.1921961e-01 -3.9719955e-01 
-2.0711342e-01 -3.0561566e-01 -4.8539267e-01 
6.2887931e-02 7.9186690e-02 -3.9629794e-01 
3.1414279e-02 3.9416220e-02 -3.9575623e-01 
-2.3174704e-01 -3.0804149e-01 -4.3891422e-01 
-7.9329063e-07 -2.1889874e-04 -3.9557560e-01 
-9.2895671e-03 2.4758463e-01 -7.8297658e-01 
1.3062939e-02 2.4794794e-01 -7.4225338e-01 
3.5249376e-02 2.4853926e-01 -7.0106082e-01 
-3.1415858e-02 -3.9844524e-02 -3.9575646e-01 
5.7343197e-02 2.4936551e-01 -6.5953451e-01 
7.9406183e-02 2.5043159e-01 -6.1780984e-01 
-6.2889486e-02 -7.9586634e-02 -3.9629842e-01 
1.0150167e-01 2.5174094e-01 -5.7602243e-01 
1.2369295e-01 2.5329553e-01 -5.3430882e-01 
8.3799059e-03 -2.7039592e-01 -8.4764231e-01 
-1.4726185e-02 -2.7078210e-01 -8.0376895e-01 
-3.7677074e-02 -2.7138841e-01 -7.5943641e-01 
-9.4480228e-02 -1.1957269e-01 -3.9720026e-01 
-6.0543515e-02 -2.7222156e-01 -7.1477726e-01 
1.4604350e-01 2.5509587e-01 -4.9280759e-01 
-8.3385232e-02 -2.7328635e-01 -6.6992431e-01 
-1.0626343e-01 -2.7458617e-01 -6.2501097e-01 
-1.2624640e-01 -1.5993298e-01 -3.9846000e-01 
1.6861535e-01 2.5714107e-01 -4.5166052e-01 
-1.2923931e-01 -2.7612300e-01 -5.8017200e-01 
1.9148328e-01 2.5942906e-01 -4.1101409e-01 
-1.5824768e-01 -2.0080182e-01 -4.0007483e-01 
-1.5237427e-01 -2.7789740e-01 -5.3554438e-01 
2.1460424e-01 2.6195449e-01 -3.7102095e-01 
-1.7572831e-01 -2.7990852e-01 -4.9126835e-01 
1.8309180e-01 2.2279251e-01 -3.6865854e-01 
1.5203782e-01 1.8443315e-01 -3.6665180e-01 
1.2127102e-01 1.4673089e-01 -3.6500372e-01 
-1.9052990e-01 -2.4231878e-01 -4.0204095e-01 
9.0744122e-02 1.0954718e-01 -3.6371812e-01 
-1.9937438e-01 -2.8215435e-01 -4.4748859e-01 
6.0396241e-02 7.2749342e-02 -3.6279784e-01 
3.0167873e-02 3.6209124e-02 -3.6224491e-01 
-2.2326514e-01 -2.8462960e-01 -4.0435544e-01 
-7.2223090e-07 -1.9869914e-04 -3.6206053e-01 
-1.0105007e-02 2.2553133e-01 -7.1876439e-01 
1.1466861e-02 2.2587024e-01 -6.8129260e-01 
-3.0169309e-02 -3.6597894e-02 -3.6224513e-01 
3.2861494e-02 2.2644537e-01 -6.4334235e-01 
5.4155151e-02 2.2726385e-01 -6.0505022e-01 
7.5411771e-02 2.2833068e-01 -5.6655203e-01 
-6.0397651e-02 -7.3112338e-02 -3.6279828e-01 
9.6696909e-02 2.2964933e-01 -5.2798335e-01 
9.2904408e-03 -2.4758085e-01 -7.8149241e-01 
-1.3062123e-02 -2.4794408e-01 -7.4093363e-01 
1.1807601e-01 2.3122172e-01 -4.8948023e-01 
-3.5248670e-02 -2.4853535e-01 -6.9990660e-01 
-9.0745490e-02 -1.0986760e-01 -3.6371878e-01 
-5.7342642e-02 -2.4936155e-01 -6.5854501e-01 
1.3961462e-01 2.3304828e-01 -4.5118050e-01 
-7.9405817e-02 -2.5042760e-01 -6.1698244e-01 
-1.0150152e-01 -2.5173694e-01 -5.7535276e-01 
-1.2127233e-01 -1.4699246e-01 -3.6500460e-01 
1.6137685e-01 2.3512804e-01 -4.1322526e-01 
-1.2369304e-01 -2.5329153e-01 -5.3379092e-01 
1.8343922e-01 2.3745887e-01 -3.7576063e-01 
-1.5203906e-01 -1.8462040e-01 -3.6665290e-01 
-1.4604384e-01 -2.5509190e-01 -4.9243397e-01 
-1.6861594e-01 -2.5713714e-01 -4.5142235e-01 
2.0576301e-01 2.4003540e-01 -3.3893962e-01 
1.7549919e-01 2.0403630e-01 -3.3652830e-01 
1.4569936e-01 1.6882935e-01 -3.3448015e-01 
-1.8309295e-01 -2.2289091e-01 -3.6865985e-01 
1.1619302e-01 1.3426851e-01 -3.3279812e-01 
-1.9148412e-01 -2.5942519e-01 -4.1090132e-01 
8.6931386e-02 1.0021588e-01 -3.3148609e-01 
5.7852415e-02 6.6540335e-02 -3.3054688e-01 
-2.1460531e-01 -2.6195070e-01 -3.7102248e-01 
2.8895383e-02 3.3115888e-02 -3.2998258e-01 
-6.5899872e-07 -1.7994891e-04 -3.2979441e-01 
-1.0819543e-02 2.0426714e-01 -6.5667549e-01 
-2.8896692e-02 -3.3467961e-02 -3.2998278e-01 
9.9436263e-03 2.0458018e-01 -6.2237439e-01 
3.0517960e-02 2.0513795e-01 -5.8758560e-01 
5.0982696e-02 2.0594787e-01 -5.5244676e-01 
7.1404080e-02 2.0701502e-01 -5.1709405e-01 
-5.7853696e-02 -6.6869035e-02 -3.3054730e-01 
9.1850015e-02 2.0834286e-01 -4.8166259e-01 
1.0105631e-02 -2.2552752e-01 -7.1741929e-01 
-1.1466262e-02 -2.2586637e-01 -6.8009654e-01 
1.1238818e-01 2.0993319e-01 -4.4628739e-01 
-3.2860968e-02 -2.2644145e-01 -6.4229634e-01 
-8.6932623e-02 -1.0050597e-01 -3.3148671e-01 
-5.4154738e-02 -2.2725988e-01 -6.0415353e-01 
-7.5411504e-02 -2.2832669e-01 -5.6580228e-01 
1.3308622e-01 2.1178632e-01 -4.1110477e-01 
-9.6696815e-02 -2.2964533e-01 -5.2737656e-01 
-1.1619419e-01 -1.3450524e-01 -3.3279895e-01 
1.5401025e-01 2.1390113e-01 -3.7625422e-01 
-1.1807611e-01 -2.3121772e-01 -4.8901098e-01 
-1.4570046e-01 -1.6899870e-01 -3.3448118e-01 
1.7523852e-01 2.1627545e-01 -3.4188051e-01 
-1.3961493e-01 -2.3304431e-01 -4.5084201e-01 
-1.6137736e-01 -2.3512411e-01 -4.1300950e-01 
1.9673659e-01 2.1890390e-01 -3.0813606e-01 
1.6774776e-01 1.8596671e-01 -3.0567518e-01 
1.3922845e-01 1.5380600e-01 -3.0358510e-01 
-1.7550019e-01 -2.0412511e-01 -3.3652953e-01 
1.1100895e-01 1.2227590e-01 -3.0186872e-01 
-1.8343995e-01 -2.3745500e-01 -3.7565850e-01 
8.3039028e-02 9.1239919e-02 -3.0052992e-01 
5.5255459e-02 6.0569367e-02 -2.9957155e-01 
-2.0576393e-01 -2.4003159e-01 -3.3894105e-01 
2.7596309e-02 3.0141477e-02 -2.9899571e-01 
-6.0277205e-07 -1.6252483e-04 -2.9880369e-01 
-2.7597505e-02 -3.0459448e-02 -2.9899591e-01 
-1.1427412e-02 1.8382036e-01 -5.9674722e-01 
8.4980330e-03 1.8410598e-01 -5.6553488e-01 
2.8222490e-02 1.8464523e-01 -5.3382546e-01 
4.7828432e-02 1.8544583e-01 -5.0175789e-01 
-5.5256625e-02 -6.0866197e-02 -2.9957194e-01 
6.7384634e-02 1.8651298e-01 -4.6946867e-01 
8.6961525e-02 1.8785003e-01 -4.3709217e-01 
1.0819939e-02 -2.0426335e-01 -6.5545983e-01 
-9.9432240e-03 -2.0457632e-01 -6.2129345e-01 
-3.0517597e-02 -2.0513405e-01 -5.8664032e-01 
-8.3040147e-02 -9.1501823e-02 -3.0053051e-01 
1.0662911e-01 1.8945861e-01 -4.0476170e-01 
-5.0982409e-02 -2.0594393e-01 -5.5163648e-01 
-7.1403902e-02 -2.0701106e-01 -5.1641659e-01 
1.2645713e-01 1.9133877e-01 -3.7261117e-01 
-9.1849971e-02 -2.0833889e-01 -4.8111436e-01 
-1.1101000e-01 -1.2248955e-01 -3.0186951e-01 
1.4651365e-01 1.9348922e-01 -3.4077733e-01 
-1.1238829e-01 -2.0992923e-01 -4.4586346e-01 
-1.3922941e-01 -1.5395873e-01 -3.0358608e-01 
-1.3308649e-01 -2.1178237e-01 -4.1079899e-01 
1.6687849e-01 1.9590770e-01 -3.0940246e-01 
-1.5401070e-01 -2.1389722e-01 -3.7605933e-01 
1.8752134e-01 1.9858890e-01 -2.7863718e-01 
1.5983451e-01 1.6861006e-01 -2.7612616e-01 
-1.6774862e-01 -1.8604663e-01 -3.0567635e-01 
1.3262263e-01 1.3938612e-01 -2.7399371e-01 
1.0571685e-01 1.1077215e-01 -2.7224262e-01 
-1.7523914e-01 -2.1627160e-01 -3.4178829e-01 
7.9065550e-02 8.2634012e-02 -2.7087672e-01 
5.2604353e-02 5.4846460e-02 -2.6989893e-01 
-1.9673735e-01 -2.1890011e-01 -3.0813743e-01 
2.6270132e-02 2.7291007e-02 -2.6931140e-01 
-5.5264836e-07 -1.4631448e-04 -2.6911547e-01 
-2.6271227e-02 -2.7577253e-02 -2.6931159e-01 
-1.1922550e-02 1.6422018e-01 -5.3901914e-01 
7.1351019e-03 1.6447677e-01 -5.1081207e-01 
2.5978891e-02 1.6499630e-01 -4.8209827e-01 
4.4694923e-02 1.6578691e-01 -4.5301844e-01 
-5.2605417e-02 -5.5113640e-02 -2.6989931e-01 
6.3354823e-02 1.6685385e-01 -4.2370950e-01 
8.2031784e-02 1.6820034e-01 -3.9430478e-01 
1.1427602e-02 -1.8381661e-01 -5.9565220e-01 
-8.4978085e-03 -1.8410218e-01 -5.6456126e-01 
-2.8222274e-02 -1.8464138e-01 -5.3297409e-01 
-7.9066563e-02 -8.2869699e-02 -2.7087729e-01 
1.0079826e-01 1.6982764e-01 -3.6493515e-01 
-4.7828259e-02 -1.8544195e-01 -5.0102817e-01 
-6.7384535e-02 -1.8650907e-01 -4.6885863e-01 
1.1972608e-01 1.7173546e-01 -3.3573105e-01 
-8.6961524e-02 -1.8784612e-01 -4.3659855e-01 
-1.0571779e-01 -1.1096434e-01 -2.7224338e-01 
1.3888510e-01 1.7392224e-01 -3.0682519e-01 
-1.0662922e-01 -1.8945470e-01 -4.0438004e-01 
-1.3262348e-01 -1.3952338e-01 -2.7399465e-01 
-1.2645737e-01 -1.9133488e-01 -3.7233590e-01 
1.5835647e-01 1.7638560e-01 -2.7835587e-01 
-1.4651403e-01 -1.9348536e-01 -3.4060192e-01 
1.7811377e-01 1.7912037e-01 -2.5047050e-01 
1.5175659e-01 1.5199359e-01 -2.4790890e-01 
-1.5983525e-01 -1.6868172e-01 -2.7612729e-01 
1.2587954e-01 1.2559348e-01 -2.4573373e-01 
1.0031478e-01 9.9776942e-02 -2.4394760e-01 
-1.6687900e-01 -1.9590389e-01 -3.0931949e-01 
7.5009416e-02 7.4413270e-02 -2.4255429e-01 
4.9898033e-02 4.9381856e-02 -2.4155678e-01 
-1.8752196e-01 -1.9858515e-01 -2.7863849e-01 
2.4916306e-02 2.4569690e-02 -2.4095736e-01 
-5.0762071e-07 -1.3121574e-04 -2.4075745e-01 
-2.4917311e-02 -2.4826385e-02 -2.4095754e-01 
-1.2298463e-02 1.4549680e-01 -4.8353416e-01 
5.8601438e-03 1.4572263e-01 -4.5824673e-01 
2.3791072e-02 1.4622122e-01 -4.3244257e-01 
4.1584656e-02 1.4700122e-01 -4.0626492e-01 
-4.9899005e-02 -4.9621420e-02 -2.4155716e-01 
5.9315826e-02 1.4806792e-01 -3.7985138e-01 
7.7060868e-02 1.4942424e-01 -3.5333400e-01 
1.1922553e-02 -1.6421650e-01 -5.3803672e-01 
-7.1350376e-03 -1.6447304e-01 -5.0993862e-01 
-2.5978806e-02 -1.6499253e-01 -4.8133455e-01 
-7.5010334e-02 -7.4624540e-02 -2.4255485e-01 
-4.4694851e-02 -1.6578311e-01 -4.5236393e-01 
9.4894839e-02 1.5107097e-01 -3.2684048e-01 
-6.3354793e-02 -1.6685003e-01 -4.2316241e-01 
1.1289162e-01 1.5300729e-01 -3.0049649e-01 
-8.2031820e-02 -1.6819651e-01 -3.9386216e-01 
-1.0031562e-01 -9.9949138e-02 -2.4394835e-01 
-1.0079838e-01 -1.6982382e-01 -3.6459297e-01 
1.3112262e-01 1.5523120e-01 -2.7442910e-01 
-1.2588028e-01 -1.2571636e-01 -2.4573466e-01 
-1.1972630e-01 -1.7173166e-01 -3.3548430e-01 
1.4966994e-01 1.5774019e-01 -2.4877087e-01 
-1.3888542e-01 -1.7391846e-01 -3.0666799e-01 
1.6851058e-01 1.6052930e-01 -2.2366422e-01 
-1.5175721e-01 -1.5205757e-01 -2.4791001e-01 
1.4351129e-01 1.3614545e-01 -2.2105177e-01 
1.1899685e-01 1.1245249e-01 -2.1883364e-01 
-1.5835688e-01 -1.7638186e-01 -2.7828156e-01 
9.4800741e-02 8.9310312e-02 -2.1701216e-01 
7.0869020e-02 6.6592957e-02 -2.1559108e-01 
4.7135350e-02 4.4185828e-02 -2.1457351e-01 
-1.7811426e-01 -1.7911668e-01 -2.5047179e-01 
2.3534231e-02 2.1982718e-02 -2.1396193e-01 
-4.6656011e-07 -1.1713631e-04 -2.1375795e-01 
-2.3535153e-02 -2.2211857e-02 -2.1396212e-01 
-1.2548049e-02 1.2768152e-01 -4.3034013e-01 
4.6788450e-03 1.2787471e-01 -4.0788377e-01 
2.1663052e-02 1.2835109e-01 -3.8490019e-01 
3.8500001e-02 1.2911993e-01 -3.6153628e-01 
-4.7136239e-02 -4.4399640e-02 -2.1457388e-01 
5.5268545e-02 1.3018648e-01 -3.3793091e-01 
1.2298298e-02 -1.4549320e-01 -4.8265700e-01 
7.2048495e-02 1.3155322e-01 -3.1421472e-01 
-5.8602227e-03 -1.4571899e-01 -4.5746691e-01 
-2.3791104e-02 -1.4621755e-01 -4.3176080e-01 
-7.0869851e-02 -6.6781458e-02 -2.1559164e-01 
-4.1584673e-02 -1.4699752e-01 -4.0568073e-01 
8.8917705e-02 1.3322027e-01 -2.9051139e-01 
-5.9315856e-02 -1.4806421e-01 -3.7936316e-01 
1.0595205e-01 1.3518608e-01 -2.6694041e-01 
-7.7060934e-02 -1.4942052e-01 -3.5293909e-01 
-9.4801492e-02 -8.9463869e-02 -2.1701291e-01 
-9.4894957e-02 -1.5106725e-01 -3.2653525e-01 
1.2322418e-01 1.3744806e-01 -2.4362122e-01 
-1.1899750e-01 -1.1256195e-01 -2.1883457e-01 
-1.1289180e-01 -1.5300358e-01 -3.0027644e-01 
1.4081657e-01 1.4000346e-01 -2.2067836e-01 
-1.3112287e-01 -1.5522752e-01 -2.7428896e-01 
-1.4351180e-01 -1.3620229e-01 -2.2105287e-01 
1.5870890e-01 1.4284762e-01 -1.9824716e-01 
1.3509620e-01 1.2109438e-01 -1.9558381e-01 
1.1197237e-01 9.9987831e-02 -1.9332262e-01 
-1.4967026e-01 -1.5773655e-01 -2.4870469e-01 
8.9172713e-02 7.9392252e-02 -1.9146549e-01 
6.6642629e-02 5.9188076e-02 -1.9001621e-01 
-1.6851095e-01 -1.6052571e-01 -2.2366551e-01 
4.4315030e-02 3.9268338e-02 -1.8897816e-01 
2.2123231e-02 1.9535080e-02 -1.8835412e-01 
-4.2821003e-07 -1.0399339e-04 -1.8814596e-01 
-2.2124076e-02 -1.9738498e-02 -1.8835432e-01 
-1.2663366e-02 1.1080709e-01 -3.7949190e-01 
3.5973679e-03 1.1096554e-01 -3.5977396e-01 
1.9598970e-02 1.1141834e-01 -3.3951761e-01 
-4.4315841e-02 -3.9458112e-02 -1.8897854e-01 
3.5443171e-02 1.1217543e-01 -3.1887502e-01 
5.1213543e-02 1.1324195e-01 -2.9798721e-01 
1.2547733e-02 -1.2767804e-01 -4.2956146e-01 
-4.6790509e-03 -1.2787120e-01 -4.0719157e-01 
6.6993953e-02 1.1461976e-01 -2.7698353e-01 
-2.1663186e-02 -1.2834755e-01 -3.8429512e-01 
-6.6643382e-02 -5.9355323e-02 -1.9001680e-01 
-3.8500095e-02 -1.2911636e-01 -3.6101793e-01 
8.2865301e-02 1.1630812e-01 -2.5598283e-01 
-5.5268626e-02 -1.3018289e-01 -3.3749783e-01 
-7.2048585e-02 -1.3154963e-01 -3.1386451e-01 
-8.9173382e-02 -7.9528411e-02 -1.9146626e-01 
9.8905396e-02 1.1830451e-01 -2.3509669e-01 
-8.8917820e-02 -1.3321668e-01 -2.9024078e-01 
1.1518773e-01 1.2060555e-01 -2.1443451e-01 
-1.1197292e-01 -1.0008478e-01 -1.9332357e-01 
-1.0595220e-01 -1.3518251e-01 -2.6674538e-01 
1.3179436e-01 1.2320808e-01 -1.9411003e-01 
-1.2322437e-01 -1.3744451e-01 -2.4349707e-01 
-1.3509661e-01 -1.2114456e-01 -1.9558495e-01 
1.4870649e-01 1.2610787e-01 -1.7424870e-01 
1.2650928e-01 1.0686936e-01 -1.7153474e-01 
-1.4081680e-01 -1.3999993e-01 -2.2061981e-01 
1.0480397e-01 8.8223886e-02 -1.6923053e-01 
8.3428560e-02 7.0042020e-02 -1.6733747e-01 
6.2328314e-02 5.2212689e-02 -1.6585951e-01 
-1.5870915e-01 -1.4284414e-01 -1.9824848e-01 
4.1435611e-02 3.4638492e-02 -1.6480045e-01 
2.0682518e-02 1.7231257e-02 -1.6416358e-01 
-3.9120145e-07 -9.1713474e-05 -1.6395111e-01 
-2.0683289e-02 -1.7410641e-02 -1.6416379e-01 
-1.2635347e-02 9.4908096e-02 -3.3105411e-01 
2.6224468e-03 9.5029415e-02 -3.1397638e-01 
1.7603099e-02 9.5457078e-02 -2.9634799e-01 
-4.1436348e-02 -3.4805806e-02 -1.6480086e-01 
3.2416214e-02 9.6201692e-02 -2.7832862e-01 
4.7151031e-02 9.7268086e-02 -2.6006291e-01 
1.2662917e-02 -1.1080375e-01 -3.7880551e-01 
-3.5976852e-03 -1.1096216e-01 -3.5916386e-01 
6.1896079e-02 9.8657386e-02 -2.4167933e-01 
-1.9599193e-02 -1.1141494e-01 -3.3898443e-01 
-6.2328993e-02 -5.2360080e-02 -1.6586012e-01 
-3.5443331e-02 -1.1217201e-01 -3.1841837e-01 
7.6735611e-02 1.0036783e-01 -2.2329118e-01 
-5.1213666e-02 -1.1323851e-01 -2.9760582e-01 
-6.6994060e-02 -1.1461632e-01 -2.7667523e-01 
-8.3429153e-02 -7.0161927e-02 -1.6733828e-01 
9.1749352e-02 1.0239575e-01 -2.0500021e-01 
-8.2865410e-02 -1.1630468e-01 -2.5574470e-01 
1.0701117e-01 1.0473672e-01 -1.8690278e-01 
-1.0480444e-01 -8.8309150e-02 -1.6923152e-01 
-9.8905517e-02 -1.1830108e-01 -2.3492515e-01 
1.2260171e-01 1.0738700e-01 -1.6909823e-01 
-1.1518786e-01 -1.2060214e-01 -2.1432539e-01 
-1.2650960e-01 -1.0691334e-01 -1.7153592e-01 
1.3850210e-01 1.1034270e-01 -1.5169855e-01 
1.1774900e-01 9.3498833e-02 -1.4893471e-01 
-1.3179451e-01 -1.2320470e-01 -1.9405867e-01 
9.7489611e-02 7.7183766e-02 -1.4658775e-01 
7.7565961e-02 6.1277035e-02 -1.4465855e-01 
5.7923873e-02 4.5678850e-02 -1.4315141e-01 
-1.4870663e-01 -1.2610452e-01 -1.7425007e-01 
3.8495394e-02 3.0303696e-02 -1.4207084e-01 
1.9211174e-02 1.5074753e-02 -1.4142077e-01 
-3.5409962e-07 -8.0232328e-05 -1.4120384e-01 
-1.9211872e-02 -1.5231667e-02 -1.4142099e-01 
-1.2453510e-02 8.0021769e-02 -2.8510489e-01 
1.7614388e-03 8.0103199e-02 -2.7056156e-01 
-3.8496059e-02 -3.0450012e-02 -1.4207128e-01 
1.5679843e-02 8.0503869e-02 -2.5545373e-01 
2.9421054e-02 8.1234801e-02 -2.3995160e-01 
4.3080970e-02 8.2300313e-02 -2.2420555e-01 
1.2634782e-02 -9.4904914e-02 -3.3045424e-01 
-2.6228601e-03 -9.5026205e-02 -3.1344325e-01 
-1.7603397e-02 -9.5453844e-02 -2.9588220e-01 
-5.7924481e-02 -4.5807678e-02 -1.4315207e-01 
5.6753378e-02 8.3700706e-02 -2.0834411e-01 
-3.2416428e-02 -9.6198442e-02 -2.7792985e-01 
-4.7151187e-02 -9.7264824e-02 -2.5973001e-01 
7.0526234e-02 8.5433206e-02 -1.9247457e-01 
-6.1896199e-02 -9.8654120e-02 -2.4141037e-01 
-7.7566483e-02 -6.1381751e-02 -1.4465941e-01 
8.4481276e-02 8.7492973e-02 -1.7668677e-01 
-7.6735712e-02 -1.0036456e-01 -2.2308355e-01 
9.8692393e-02 8.9874313e-02 -1.6106040e-01 
-9.7490014e-02 -7.7258112e-02 -1.4658881e-01 
-9.1749443e-02 -1.0239249e-01 -2.0485074e-01 
1.1323765e-01 9.2572569e-02 -1.4567567e-01 
-1.0701126e-01 -1.0473348e-01 -1.8680779e-01 
-1.1774924e-01 -9.3537021e-02 -1.4893597e-01 
1.2809592e-01 9.5584011e-02 -1.3062632e-01 
-1.2260179e-01 -1.0738378e-01 -1.6905364e-01 
1.0881452e-01 8.1009509e-02 -1.2781400e-01 
9.0027304e-02 6.6887781e-02 -1.2542492e-01 
7.1582336e-02 5.3111183e-02 -1.2345957e-01 
5.3426791e-02 3.9595007e-02 -1.2192298e-01 
-1.3850215e-01 -1.1033951e-01 -1.5170000e-01 
3.5492446e-02 2.6268429e-02 -1.2082061e-01 
1.7708165e-02 1.3067436e-02 -1.2015716e-01 
-3.1549575e-07 -6.9495140e-05 -1.1993574e-01 
-1.7708786e-02 -1.3203337e-02 -1.2015740e-01 
-1.2105763e-02 6.6189097e-02 -2.4174056e-01 
1.0222613e-03 6.6227457e-02 -2.2961571e-01 
-3.5493037e-02 -2.6395110e-02 -1.2082108e-01 
1.3833715e-02 6.6598789e-02 -2.1691008e-01 
2.6459651e-02 6.7313897e-02 -2.0380833e-01 
3.9003395e-02 6.8376270e-02 -1.9046956e-01 
1.2452845e-02 -8.0018766e-02 -2.8458613e-01 
-1.7619330e-03 -8.0100172e-02 -2.7010059e-01 
-1.5680203e-02 -8.0500822e-02 -2.5505113e-01 
-5.3427328e-02 -3.9706480e-02 -1.2192369e-01 
5.1564391e-02 6.9785508e-02 -1.7702407e-01 
-2.9421312e-02 -8.1231741e-02 -2.3960712e-01 
-4.3081152e-02 -8.2297242e-02 -2.2391815e-01 
6.4234660e-02 7.1538172e-02 -1.6357321e-01 
-5.6753507e-02 -8.3697630e-02 -2.0811207e-01 
-7.1582790e-02 -5.3201699e-02 -1.2346050e-01 
7.7098312e-02 7.3628526e-02 -1.5019287e-01 
-7.0526324e-02 -8.5430128e-02 -1.9229559e-01 
9.0229245e-02 7.6049555e-02 -1.3694175e-01 
-9.0027639e-02 -6.6951926e-02 -1.2542607e-01 
-8.4481339e-02 -8.7489899e-02 -1.7655803e-01 
-9.8692431e-02 -8.9871247e-02 -1.6097869e-01 
1.0370189e-01 7.8795219e-02 -1.2387476e-01 
-1.0881469e-01 -8.1042298e-02 -1.2781536e-01 
-1.1323766e-01 -9.2569518e-02 -1.4563747e-01 
1.1749014e-01 8.1861398e-02 -1.1106069e-01 
9.9705693e-02 6.9424478e-02 -1.0820227e-01 
8.2415006e-02 5.7351125e-02 -1.0577239e-01 
6.5474808e-02 4.5552356e-02 -1.0377151e-01 
4.8834320e-02 3.3963783e-02 -1.0220593e-01 
-1.2809588e-01 -9.5580980e-02 -1.3062789e-01 
3.2424738e-02 2.2532585e-02 -1.0108227e-01 
1.6172441e-02 1.1208658e-02 -1.0040590e-01 
-2.7415673e-07 -5.9456982e-05 -1.0018016e-01 
-1.6172980e-02 -1.1324915e-02 -1.0040616e-01 
-1.1578466e-02 5.3456451e-02 -2.0108173e-01 
-3.2425250e-02 -2.2640911e-02 -1.0108279e-01 
4.1307774e-04 5.3448147e-02 -1.9124614e-01 
1.2069270e-02 5.3787096e-02 -1.8080990e-01 
2.3534318e-02 5.4482539e-02 -1.6997699e-01 
1.2105015e-02 -6.6186291e-02 -2.4129780e-01 
-1.0228210e-03 -6.6224631e-02 -2.2922234e-01 
3.4919083e-02 5.5536757e-02 -1.5891919e-01 
-1.3834123e-02 -6.6595948e-02 -2.1656669e-01 
-4.8834784e-02 -3.4059036e-02 -1.0220670e-01 
-2.6459941e-02 -6.7311044e-02 -2.0351472e-01 
4.6328507e-02 5.6949041e-02 -1.4777136e-01 
-3.9003595e-02 -6.8373409e-02 -1.9022481e-01 
5.7858957e-02 5.8716276e-02 -1.3662989e-01 
-5.1564522e-02 -6.9782639e-02 -1.7682667e-01 
-6.5475194e-02 -4.5629606e-02 -1.0377252e-01 
6.9597738e-02 6.0832751e-02 -1.2555518e-01 
-6.4234739e-02 -7.1535299e-02 -1.6342111e-01 
-8.2415278e-02 -5.7405745e-02 -1.0577365e-01 
-7.7098349e-02 -7.3625652e-02 -1.5008360e-01 
8.1619570e-02 6.3290454e-02 -1.1458014e-01 
-9.0229242e-02 -7.6046684e-02 -1.3687253e-01 
9.3994858e-02 6.6081385e-02 -1.0372633e-01 
-9.9705799e-02 -6.9452236e-02 -1.0820375e-01 
-1.0370184e-01 -7.8792354e-02 -1.2384258e-01 
1.0668953e-01 6.9199846e-02 -9.3027952e-02 
9.0423158e-02 5.8760302e-02 -9.0127392e-02 
7.4650547e-02 4.8580494e-02 -8.7659318e-02 
5.9240353e-02 3.8599064e-02 -8.5625027e-02 
-1.1749003e-01 -8.1858544e-02 -1.1106240e-01 
4.4143844e-02 2.8779098e-02 -8.4032810e-02 
2.9290580e-02 1.9089462e-02 -8.2890280e-02 
1.4603216e-02 9.4942439e-03 -8.2202887e-02 
-2.2924350e-07 -5.0083706e-05 -8.1973531e-02 
-1.4603668e-02 -9.5921586e-03 -8.2203165e-02 
-2.9291008e-02 -1.9180656e-02 -8.2890836e-02 
-1.0857111e-02 4.1877667e-02 -1.6328073e-01 
-5.8418526e-05 4.1818886e-02 -1.5558825e-01 
1.0390903e-02 4.2121453e-02 -1.4726997e-01 
2.0648294e-02 4.2790749e-02 -1.3855507e-01 
1.1577651e-02 -5.3453860e-02 -2.0071003e-01 
-4.1368709e-04 -5.3445541e-02 -1.9091598e-01 
3.0830735e-02 4.3827176e-02 -1.2963295e-01 
-1.2069713e-02 -5.3784479e-02 -1.8052186e-01 
-4.4144230e-02 -2.8859215e-02 -8.4033641e-02 
-2.3534630e-02 -5.4479912e-02 -1.6973094e-01 
4.1047485e-02 4.5230698e-02 -1.2064699e-01 
-3.4919292e-02 -5.5534121e-02 -1.5871432e-01 
5.1399160e-02 4.7000326e-02 -1.1169108e-01 
-4.6328637e-02 -5.6946396e-02 -1.4760634e-01 
-5.9240670e-02 -3.8663940e-02 -8.5626129e-02 
-5.7859024e-02 -5.8713623e-02 -1.3650293e-01 
6.1977772e-02 4.9132484e-02 -1.0280993e-01 
-7.4650759e-02 -4.8626238e-02 -8.7660685e-02 
-6.9597751e-02 -6.0830091e-02 -1.2546414e-01 
7.2861311e-02 5.1619321e-02 -9.4006004e-02 
-8.1619532e-02 -6.3287789e-02 -1.1452262e-01 
8.4117526e-02 5.4450337e-02 -8.5257388e-02 
-9.0423211e-02 -5.8783381e-02 -9.0129017e-02 
-9.3994766e-02 -6.6078717e-02 -1.0369981e-01 
9.5702062e-02 5.7616083e-02 -7.6549563e-02 
8.0968072e-02 4.9022728e-02 -7.3613418e-02 
6.6731638e-02 4.0569401e-02 -7.1112297e-02 
5.2876320e-02 3.2236155e-02 -6.9050068e-02 
-1.0668936e-01 -6.9197178e-02 -9.3029829e-02 
3.9353856e-02 2.4022959e-02 -6.7437554e-02 
2.6089566e-02 1.5923804e-02 -6.6282558e-02 
1.3000567e-02 7.9156074e-03 -6.5588840e-02 
-1.8059182e-07 -4.1353451e-05 -6.5357695e-02 
-1.3000923e-02 -7.9964405e-03 -6.5589137e-02 
-2.6089903e-02 -1.5999048e-02 -6.6283153e-02 
-9.9280010e-03 3.1516462e-02 -1.2853064e-01 
-3.8644583e-04 3.1403636e-02 -1.2281386e-01 
8.8024925e-03 3.1664802e-02 -1.1643898e-01 
1.7806464e-02 3.2297621e-02 -1.0966702e-01 
1.0856246e-02 -4.1875309e-02 -1.6297523e-01 
5.7776179e-05 -4.1816518e-02 -1.5531693e-01 
-1.0391367e-02 -4.2119078e-02 -1.4703346e-01 
-3.9354158e-02 -2.4088993e-02 -6.7438446e-02 
2.6744869e-02 3.3299916e-02 -1.0271049e-01 
-2.0648617e-02 -4.2788366e-02 -1.3835329e-01 
3.5727900e-02 3.4673432e-02 -9.5726121e-02 
-3.0830947e-02 -4.3824783e-02 -1.2946522e-01 
-4.1047610e-02 -4.5228294e-02 -1.2051213e-01 
-5.2876564e-02 -3.2289528e-02 -6.9051255e-02 
4.4859783e-02 3.6422611e-02 -8.8809659e-02 
-5.1399214e-02 -4.6997908e-02 -1.1158754e-01 
5.4239332e-02 3.8549561e-02 -8.1992603e-02 
-6.6731790e-02 -4.0606902e-02 -7.1113778e-02 
-6.1977765e-02 -4.9130051e-02 -1.0273586e-01 
6.3952869e-02 4.1049590e-02 -7.5244219e-02 
-7.2861247e-02 -5.1616872e-02 -9.3959391e-02 
7.4070901e-02 4.3909708e-02 -6.8487387e-02 
-8.0968079e-02 -4.9041471e-02 -7.3615185e-02 
-8.4117402e-02 -5.4447872e-02 -8.5236141e-02 
8.4539048e-02 4.7113132e-02 -6.1638158e-02 
7.1341676e-02 4.0200535e-02 -5.8677518e-02 
5.8656083e-02 3.3292106e-02 -5.6153604e-02 
4.6381928e-02 2.6430180e-02 -5.4075617e-02 
-9.5701854e-02 -5.7613603e-02 -7.6551611e-02 
3.4465911e-02 1.9662890e-02 -5.2457075e-02 
2.2824392e-02 1.3010901e-02 -5.1303078e-02 
1.1366460e-02 6.4596379e-03 -5.0612963e-02 
-1.2903554e-07 -3.3259097e-05 -5.0383397e-02 
-1.1366714e-02 -6.5246365e-03 -5.0613273e-02 
-2.2824631e-02 -1.3071367e-02 -5.1303700e-02 
-8.7814827e-03 2.2448824e-02 -9.7075466e-02 
-5.6952332e-04 2.2279464e-02 -9.3140923e-02 
7.3065326e-03 2.2493307e-02 -8.8507242e-02 
9.9271071e-03 -3.1514355e-02 -1.2828643e-01 
1.5016424e-02 2.3074718e-02 -8.3474453e-02 
3.8578860e-04 -3.1401525e-02 -1.2259698e-01 
-8.8029621e-03 -3.1662687e-02 -1.1625013e-01 
-3.4466122e-02 -1.9715889e-02 -5.2458013e-02 
2.2673906e-02 2.4017481e-02 -7.8283124e-02 
-1.7806786e-02 -3.2295500e-02 -1.0950618e-01 
3.0384975e-02 2.5327067e-02 -7.3107596e-02 
-2.6745076e-02 -3.3297783e-02 -1.0257708e-01 
-3.5728018e-02 -3.4671283e-02 -9.5619124e-02 
-4.6382094e-02 -2.6472918e-02 -5.4076873e-02 
3.8253879e-02 2.7016578e-02 -6.8051280e-02 
-4.4859827e-02 -3.6420441e-02 -8.8727736e-02 
4.6389443e-02 2.9100506e-02 -6.3139472e-02 
-5.8656175e-02 -3.3321997e-02 -5.6155182e-02 
-5.4239312e-02 -3.8547364e-02 -8.1934202e-02 
5.4894574e-02 3.1582474e-02 -5.8310991e-02 
-6.3952788e-02 -4.1047364e-02 -7.5207674e-02 
6.3854768e-02 3.4449576e-02 -5.3422697e-02 
-7.1341645e-02 -4.0215286e-02 -5.8679414e-02 
-7.4070759e-02 -4.3907450e-02 -6.8471017e-02 
7.3214787e-02 3.7672400e-02 -4.8291518e-02 
6.1544071e-02 3.2257141e-02 -4.5325804e-02 
5.0423212e-02 2.6696704e-02 -4.2799336e-02 
-8.4538824e-02 -4.7110840e-02 -6.1640368e-02 
3.9761224e-02 2.1126125e-02 -4.0730990e-02 
2.9488253e-02 1.5652352e-02 -3.9134239e-02 
1.9503809e-02 1.0318837e-02 -3.8007096e-02 
9.7061878e-03 5.1105186e-03 -3.7337689e-02 
-7.6685912e-08 -2.5812083e-05 -3.7116274e-02 
-9.7063374e-03 -5.1609528e-03 -3.7338002e-02 
-1.9503947e-02 -1.0365721e-02 -3.8007727e-02 
-7.4180895e-03 1.4763961e-02 -6.9221120e-02 
-6.1391129e-04 1.4538577e-02 -6.6843580e-02 
5.9029740e-03 1.4698643e-02 -6.3717197e-02 
8.7805812e-03 -2.2446984e-02 -9.6887413e-02 
5.6887150e-04 -2.2277627e-02 -9.2973882e-02 
1.2288505e-02 1.5209078e-02 -6.0188874e-02 
-7.3069912e-03 -2.2491471e-02 -8.8361979e-02 
-2.9488370e-02 -1.5693386e-02 -3.9135195e-02 
-1.5016734e-02 -2.3072876e-02 -8.3351030e-02 
1.8639426e-02 1.6057341e-02 -5.6529319e-02 
-2.2674103e-02 -2.4015625e-02 -7.8181060e-02 
2.5045748e-02 1.7253250e-02 -5.2930688e-02 
-3.0385084e-02 -2.5325189e-02 -7.3026019e-02 
-3.9761307e-02 -2.1159119e-02 -4.0732281e-02 
3.1609822e-02 1.8823521e-02 -4.9508642e-02 
-3.8253916e-02 -2.7014669e-02 -6.7989061e-02 
3.8447728e-02 2.0799151e-02 -4.6294872e-02 
-5.0423241e-02 -2.6719641e-02 -4.2800972e-02 
-4.6389417e-02 -2.9098558e-02 -6.3095330e-02 
4.5691814e-02 2.3205856e-02 -4.3212292e-02 
-5.4894489e-02 -3.1580480e-02 -5.8283594e-02 
-6.1544007e-02 -3.2268259e-02 -4.5327790e-02 
5.3467225e-02 2.6035891e-02 -4.0049278e-02 
-6.3854625e-02 -3.4447529e-02 -5.3410746e-02 
6.1742890e-02 2.9242953e-02 -3.6484231e-02 
5.1573856e-02 2.5120310e-02 -3.3548647e-02 
4.2036682e-02 2.0699890e-02 -3.1059896e-02 
-7.3214570e-02 -3.7670293e-02 -4.8293852e-02 
3.3029374e-02 1.6249978e-02 -2.9049417e-02 
2.4441806e-02 1.1938867e-02 -2.7526322e-02 
1.6145694e-02 7.8173044e-03 -2.6467348e-02 
8.0305391e-03 3.8551327e-03 -2.5847029e-02 
-2.7073324e-08 -1.9048295e-05 -2.5642549e-02 
-8.0305899e-03 -3.8923433e-03 -2.5847331e-02 
-1.6145735e-02 -7.8518699e-03 -2.6467958e-02 
-5.8547748e-03 8.5651385e-03 -4.5346435e-02 
-5.3937292e-04 8.2873061e-03 -4.4260888e-02 
4.5876032e-03 8.3889444e-03 -4.2373030e-02 
7.4172065e-03 -1.4762405e-02 -6.9083730e-02 
6.1328812e-04 -1.4537031e-02 -6.6721434e-02 
-5.9034035e-03 -1.4697102e-02 -6.3611160e-02 
-2.4441829e-02 -1.1969070e-02 -2.7527253e-02 
9.6370551e-03 8.8033856e-03 -4.0085789e-02 
-1.2288791e-02 -1.5207533e-02 -6.0099079e-02 
1.4669686e-02 9.5161648e-03 -3.7695644e-02 
-1.8639607e-02 -1.6055781e-02 -5.6455372e-02 
1.9755600e-02 1.0537011e-02 -3.5402345e-02 
-2.5045847e-02 -1.7251661e-02 -5.2871858e-02 
-3.3029372e-02 -1.6274176e-02 -2.9050685e-02 
2.4975653e-02 1.1902158e-02 -3.3330451e-02 
-3.1609857e-02 -1.8821890e-02 -4.9464004e-02 
3.0458357e-02 1.3672835e-02 -3.1532981e-02 
-4.2036644e-02 -2.0716576e-02 -3.1061522e-02 
-3.8447706e-02 -2.0797467e-02 -4.6263415e-02 
3.6365861e-02 1.5898577e-02 -2.9950680e-02 
-4.5691737e-02 -2.3204106e-02 -4.3193001e-02 
-5.1573761e-02 -2.5128182e-02 -3.3550649e-02 
4.2901462e-02 1.8607568e-02 -2.8326654e-02 
-5.3467098e-02 -2.6034060e-02 -4.0041212e-02 
5.0132751e-02 2.1728994e-02 -2.6158383e-02 
4.1424671e-02 1.8673366e-02 -2.3319893e-02 
3.3514672e-02 1.5191204e-02 -2.0944894e-02 
-6.1742705e-02 -2.9241031e-02 -3.6486612e-02 
2.6223674e-02 1.1727201e-02 -1.9084637e-02 
1.9365098e-02 8.4877392e-03 -1.7714093e-02 
1.2782554e-02 5.4969467e-03 -1.6788597e-02 
6.3548157e-03 2.6933195e-03 -1.6252044e-02 
1.4969475e-08 -1.3037015e-05 -1.6076757e-02 
-6.3547824e-03 -2.7187826e-03 -1.6252319e-02 
-1.2782511e-02 -5.5205838e-03 -1.6789153e-02 
-4.1470874e-03 3.9570945e-03 -2.5913316e-02 
-3.8189150e-04 3.6446896e-03 -2.5801481e-02 
5.8539411e-03 -8.5638824e-03 -4.5253611e-02 
5.3880589e-04 -8.2860673e-03 -4.4178161e-02 
3.3518166e-03 3.6791287e-03 -2.4845938e-02 
-4.5879833e-03 -8.3877171e-03 -4.2301379e-02 
-1.9365038e-02 -8.5083567e-03 -1.7714944e-02 
7.0752366e-03 3.9780781e-03 -2.3517596e-02 
-9.6373051e-03 -8.8021547e-03 -4.0025403e-02 
1.0803205e-02 4.5088648e-03 -2.2120839e-02 
-1.4669843e-02 -9.5149156e-03 -3.7646204e-02 
1.4564614e-02 5.2937065e-03 -2.0834428e-02 
-1.9755691e-02 -1.0535727e-02 -3.5363255e-02 
-2.6223592e-02 -1.1743650e-02 -1.9085805e-02 
1.8433098e-02 6.3655275e-03 -1.9772247e-02 
-2.4975690e-02 -1.1900824e-02 -3.3300994e-02 
2.2499755e-02 7.7811715e-03 -1.9012012e-02 
-3.3514567e-02 -1.5202418e-02 -2.0946411e-02 
-3.0458347e-02 -1.3671435e-02 -3.1512412e-02 
2.6973473e-02 9.6684955e-03 -1.8560319e-02 
-3.6365808e-02 -1.5897092e-02 -2.9938289e-02 
-4.1424544e-02 -1.8678434e-02 -2.3321793e-02 
3.2161115e-02 1.2084325e-02 -1.8195257e-02 
-4.2901371e-02 -1.8605976e-02 -2.8321829e-02 
3.8359309e-02 1.4985137e-02 -1.7223164e-02 
3.1099212e-02 1.2761488e-02 -1.4605639e-02 
-5.0132616e-02 -2.1727272e-02 -2.6160681e-02 
2.4907335e-02 1.0068991e-02 -1.2500193e-02 
1.9412315e-02 7.5373251e-03 -1.0926395e-02 
1.4327716e-02 5.3300760e-03 -9.8373678e-03 
9.4525676e-03 3.3995810e-03 -9.1119999e-03 
4.6997390e-03 1.6514867e-03 -8.6981376e-03 
4.3783147e-08 -7.8943350e-06 -8.5633770e-03 
-4.6996482e-03 -1.6669041e-03 -8.6983652e-03 
-9.4524669e-03 -3.4138864e-03 -9.1124615e-03 
-2.3781495e-03 1.0551913e-03 -1.1474219e-02 
4.1463445e-03 -3.9561470e-03 -2.5858081e-02 
-2.0642043e-04 7.1060168e-04 -1.1938602e-02 
3.8141289e-04 -3.6437726e-03 -2.5751929e-02 
2.1805902e-03 6.9670868e-04 -1.1571489e-02 
-3.3521263e-03 -3.6782263e-03 -2.4803168e-02 
-1.4327599e-02 -5.3425355e-03 -9.8380769e-03 
4.6263808e-03 8.3929291e-04 -1.0924870e-02 
-7.0754368e-03 -3.9771751e-03 -2.3481814e-02 
7.0646189e-03 1.1702276e-03 -1.0256428e-02 
-1.0803335e-02 -4.5079393e-03 -2.2091779e-02 
9.5289926e-03 1.6784200e-03 -9.6777386e-03 
-1.4564693e-02 -5.2927437e-03 -2.0811638e-02 
-1.9412177e-02 -7.5472191e-03 -1.0927374e-02 
1.2055468e-02 2.3813396e-03 -9.2618862e-03 
-1.8433138e-02 -6.3645119e-03 -1.9755222e-02 
-2.4907176e-02 -1.0075632e-02 -1.2501474e-02 
1.4724517e-02 3.3266740e-03 -9.0840531e-03 
-2.2499763e-02 -7.7800855e-03 -1.9000266e-02 
1.7637290e-02 4.5861621e-03 -9.2250262e-03 
-2.6973454e-02 -9.6673161e-03 -1.8553428e-02 
-3.1099054e-02 -1.2764275e-02 -1.4607273e-02 
2.1262168e-02 6.4604246e-03 -9.6409556e-03 
-3.2161075e-02 -1.2083016e-02 -1.8192905e-02 
2.6367350e-02 8.8511028e-03 -9.5928906e-03 
-3.8359236e-02 -1.4983666e-02 -1.7225182e-02 
2.0606348e-02 7.2615070e-03 -7.4560968e-03 
1.6321922e-02 5.3685105e-03 -5.8326811e-03 
1.2733525e-02 3.8311161e-03 -4.8044867e-03 
9.3917766e-03 2.6294935e-03 -4.0903498e-03 
6.2004122e-03 1.6471940e-03 -3.6240246e-03 
3.0831228e-03 7.9247007e-04 -3.3582266e-03 
5.3636603e-08 -3.8026229e-06 -3.2718085e-03 
-3.0830126e-03 -7.9989696e-04 -3.3583897e-03 
-6.2002934e-03 -1.6540856e-03 -3.6243554e-03 
2.3775411e-03 -1.0545674e-03 -1.1448328e-02 
-7.5051096e-04 -9.0982523e-05 -2.6801011e-03 
2.0606797e-04 -7.1000851e-04 -1.1914925e-02 
-1.0081544e-04 -3.8519686e-04 -3.1680641e-03 
-2.1808037e-03 -6.9614414e-04 -1.1551194e-02 
-9.3916433e-03 -2.6354920e-03 -4.0908576e-03 
1.0876857e-03 -5.1492781e-04 -3.0552649e-03 
-4.6265238e-03 -8.3871889e-04 -1.0908094e-02 
2.2741338e-03 -4.7592699e-04 -2.8578443e-03 
-7.0647145e-03 -1.1696307e-03 -1.0242954e-02 
3.4716962e-03 -3.3528180e-04 -2.6697068e-03 
-9.5290563e-03 -1.6777884e-03 -9.6672790e-03 
-1.2733373e-02 -3.8358612e-03 -4.8051864e-03 
4.6792072e-03 -1.0715475e-04 -2.5187774e-03 
-1.2055508e-02 -2.3806618e-03 -9.2541552e-03 
5.9182501e-03 2.0732587e-04 -2.4275480e-03 
-1.6321749e-02 -5.3716362e-03 -5.8335935e-03 
-1.4724540e-02 -3.3259352e-03 -9.0787972e-03 
7.2159817e-03 6.2038789e-04 -2.4283860e-03 
-1.7637300e-02 -4.5853424e-03 -9.2220556e-03 
8.6673547e-03 1.1651209e-03 -2.5813003e-03 
-2.0606173e-02 -7.2626525e-03 -7.4572648e-03 
-2.1262183e-02 -6.4594901e-03 -9.6401883e-03 
1.0356233e-02 1.8749739e-03 -2.9986419e-03 
-2.6367335e-02 -8.8500039e-03 -9.5943663e-03 
1.3898871e-02 3.3502434e-03 -3.3786093e-03 
1.0062072e-02 2.4195272e-03 -2.0521114e-03 
8.0432992e-03 1.5925459e-03 -1.4715620e-03 
6.2544211e-03 1.0752116e-03 -1.0446863e-03 
4.6215221e-03 7.1580209e-04 -7.4691335e-04 
3.0516890e-03 4.4056682e-04 -5.4763974e-04 
1.5182731e-03 2.0999499e-04 -4.3265241e-04 
3.8996400e-08 -1.0371980e-06 -3.9518180e-04 
-1.5181933e-03 -2.1202134e-04 -4.3273487e-04 
-3.0516039e-03 -4.4244866e-04 -5.4780679e-04 
7.5011018e-04 9.1303600e-05 -2.6734554e-03 
1.0064426e-04 3.8543739e-04 -3.1615552e-03 
0.0000000e+00 0.0000000e+00 0.0000000e+00 
0.0000000e+00 0.0000000e+00 0.0000000e+00 
-1.0877992e-03 5.1517240e-04 -3.0498200e-03 
-4.6214280e-03 -7.1744157e-04 -7.4716914e-04 
0.0000000e+00 0.0000000e+00 0.0000000e+00 
-2.2742090e-03 4.7618305e-04 -2.8534281e-03 
0.0000000e+00 0.0000000e+00 0.0000000e+00 
-3.4717494e-03 3.3555519e-04 -2.6662086e-03 
0.0000000e+00 0.0000000e+00 0.0000000e+00 
-4.6792454e-03 1.0744992e-04 -2.5160941e-03 
-6.2543148e-03 -1.0765075e-03 -1.0450363e-03 
0.0000000e+00 0.0000000e+00 0.0000000e+00 
-5.9182782e-03 -2.0700350e-04 -2.4255887e-03 
0.0000000e+00 0.0000000e+00 0.0000000e+00 
-8.0431803e-03 -1.5933874e-03 -1.4720128e-03 
-7.2160034e-03 -6.2003064e-04 -2.4270758e-03 
0.0000000e+00 0.0000000e+00 0.0000000e+00 
-8.6673751e-03 -1.1647171e-03 -2.5805911e-03 
0.0000000e+00 0.0000000e+00 0.0000000e+00 
-1.0061950e-02 -2.4197693e-03 -2.0526533e-03 
-1.0356260e-02 -1.8745200e-03 -2.9985555e-03 
0.0000000e+00 0.0000000e+00 0.0000000e+00 
-1.3898885e-02 -3.3497218e-03 -3.3792662e-03 
0.0000000e+00 0.0000000e+00 0.0000000e+00 
0.0000000e+00 0.0000000e+00 0.0000000e+00 
0.0000000e+00 0.0000000e+00 0.0000000e+00 
0.0000000e+00 0.0000000e+00 0.0000000e+00 
0.0000000e+00 0.0000000e+00 0.0000000e+00 
0.0000000e+00 0.0000000e+00 0.0000000e+00 
0.0000000e+00 0.0000000e+00 0.0000000e+00 
0.0000000e+00 0.0000000e+00 0.0000000e+00 
0.0000000e+00 0.0000000e+00 0.0000000e+00 
0.0000000e+00 0.0000000e+00 0.0000000e+00 
0.0000000e+00 0.0000000e+00 0.0000000e+00 
0.0000000e+00 0.0000000e+00 0.0000000e+00 
0.0000000e+00 0.0000000e+00 0.0000000e+00 
0.0000000e+00 0.0000000e+00 0.0000000e+00 
0.0000000e+00 0.0000000e+00 0.0000000e+00 
0.0000000e+00 0.0000000e+00 0.0000000e+00 
0.0000000e+00 0.0000000e+00 0.0000000e+00 
0.0000000e+00 0.0000000e+00 0.0000000e+00 
0.0000000e+00 0.0000000e+00 0.0000000e+00 
0.0000000e+00 0.0000000e+00 0.0000000e+00 
0.0000000e+00 0.0000000e+00 0.0000000e+00 
0.0000000e+00 0.0000000e+00 0.0000000e+00 
0.0000000e+00 0.0000000e+00 0.0000000e+00 
0.0000000e+00 0.0000000e+00 0.0000000e+00 
0.0000000e+00 0.0000000e+00 0.0000000e+00 
REACTION 3 3535  float
1.8600211e+04 4.4295047e+04 2.2270612e+04 
1.4050346e+04 6.2946376e+04 1.9978127e+04 
2.3081773e+04 2.5712578e+04 2.4575383e+04 
-2.0853233e+02 4.0495868e+02 1.3739023e+02 
1.3918960e+04 6.2336184e+04 1.9761146e+04 
2.3224995e+04 2.6245234e+04 2.4794352e+04 
-2.4951340e+02 1.0101824e+03 3.2362220e+02 
-4.1076184e+02 2.3329118e+02 5.9817928e+01 
-4.9000734e+02 7.5679227e+02 2.2762300e+02 
1.3701979e+04 6.1386834e+04 1.9425469e+04 
2.3549735e+04 2.7146061e+04 2.5184118e+04 
-3.2977400e+02 1.8036746e+03 5.6964689e+02 
-6.3096296e+02 4.1279842e+01 -2.0157120e+01 
-6.6555122e+02 1.3241278e+03 3.9879114e+02 
-7.3298369e+02 4.4887789e+02 1.1184613e+02 
1.3407770e+04 6.0138212e+04 1.8988748e+04 
2.4084827e+04 2.8776390e+04 2.5925355e+04 
-6.4749941e+02 2.8836877e+03 8.7423674e+02 
-8.2631183e+02 -1.4629212e+02 -9.4200294e+01 
-9.3554251e+02 8.0101111e+02 2.1606193e+02 
-9.3017533e+02 1.5066228e+02 3.3153142e+00 
-1.0561960e+03 1.7988934e+03 5.1653926e+02 
-1.1129887e+03 3.5819405e+02 6.7124868e+01 
2.3868777e+04 2.8670166e+04 2.8044840e+04 
1.3055107e+04 5.8647548e+04 1.8468405e+04 
-1.2715113e+03 9.7212267e+02 2.5396859e+02 
-9.7672095e+02 -3.0922036e+02 -1.5613961e+02 
-1.6077695e+03 3.4835626e+03 9.8134876e+02 
-1.6953519e+03 1.6965548e+03 4.3906283e+02 
-1.0679658e+03 -1.0017148e+02 -8.5880814e+01 
-1.3725571e+03 4.0775100e+02 7.8482390e+01 
-1.2161884e+03 2.1129709e+01 -4.5606846e+01 
-1.6990451e+03 7.9825243e+02 1.8902070e+02 
2.3630969e+04 2.8966108e+04 2.6373178e+04 
1.2665376e+04 5.6978361e+04 1.7883128e+04 
-2.6134581e+03 1.5245407e+03 3.5874715e+02 
-1.0793183e+03 -4.3782127e+02 -2.0434248e+02 
-1.1526696e+03 -2.9367849e+02 -1.5453224e+02 
-2.2865417e+03 8.2970986e+02 1.8595791e+02 
-1.6708697e+03 2.4040476e+02 3.4886031e+01 
-1.4092880e+03 2.0995641e+01 -4.1010685e+01 
-1.2658998e+03 -2.2298715e+02 -1.2723087e+02 
-2.0909865e+03 2.4606909e+02 4.9900537e+01 
2.2465387e+04 2.6084166e+04 2.5075114e+04 
1.2257099e+04 5.5190252e+04 1.7250559e+04 
-1.6200761e+03 -1.3242154e+02 -8.7770599e+01 
-2.7985739e+03 -4.0950302e+02 -1.4619736e+02 
-1.1403147e+03 -5.3191803e+02 -2.4027874e+02 
-1.9455670e+03 -1.7595165e+02 -1.0034605e+02 
-1.4062413e+03 -2.4568629e+02 -1.3074120e+02 
-1.1956848e+03 -4.3409529e+02 -2.0477426e+02 
-2.5537547e+03 -4.3011293e+02 -1.2398051e+02 
-1.2787562e+03 -3.9451817e+02 -1.8753446e+02 
-2.3448691e+03 -6.3729089e+02 -2.6907502e+02 
-1.8036556e+03 -4.2289954e+02 -1.4904067e+02 
-1.5510165e+03 -3.6806374e+02 -1.5775254e+02 
2.1286253e+04 2.3289813e+04 2.4067628e+04 
1.1844271e+04 5.3333371e+04 1.6585905e+04 
-2.1187827e+03 -7.2175638e+02 -1.7668525e+02 
-2.6646295e+03 -2.0205544e+03 -7.3170514e+02 
-1.1686478e+03 -5.9597806e+02 -2.6595651e+02 
-1.3772882e+03 -4.2198861e+02 -1.8947557e+02 
-2.5892673e+03 -1.8418665e+03 -8.2613490e+02 
-1.2083402e+03 -5.3103654e+02 -2.4113210e+02 
-1.6741255e+03 -5.9185437e+02 -2.2269804e+02 
-1.2667228e+03 -5.0931714e+02 -2.2874243e+02 
-2.3852408e+03 -1.4159806e+03 -2.0429360e+02 
-1.4753676e+03 -5.2134002e+02 -2.1560564e+02 
-1.9241448e+03 -8.4404723e+02 -2.7659827e+02 
-2.1724171e+03 -1.4101361e+03 -3.9882534e+02 
-1.3339750e+03 -5.3666279e+02 -2.3229177e+02 
2.0290115e+04 2.0751951e+04 2.3652892e+04 
1.1436530e+04 5.1447072e+04 1.5901686e+04 
-2.3017447e+03 -4.2395352e+03 -2.4774846e+03 
-1.1730594e+03 -6.3610652e+02 -2.8381540e+02 
-2.3702490e+03 -2.4687210e+03 2.9409859e+01 
-1.5531911e+03 -6.8194442e+02 -2.5787841e+02 
-1.7459686e+03 -8.8109667e+02 -2.9930481e+02 
-1.1998924e+03 -5.9375700e+02 -2.6596740e+02 
-1.9452690e+03 -1.2993331e+03 -3.9228306e+02 
-1.3976627e+03 -6.1164828e+02 -2.4980314e+02 
-2.2931305e+03 -2.3975483e+03 -5.6691679e+02 
-1.2392036e+03 -5.8283758e+02 -2.5747691e+02 
-2.0729401e+03 -2.0396122e+03 -5.6079632e+02 
-1.2830609e+03 -6.0599058e+02 -2.5940535e+02 
-1.5934380e+03 -8.8659405e+02 -3.1939046e+02 
-1.7489873e+03 -1.2011270e+03 -4.0322689e+02 
1.8096166e+04 -2.7319139e+04 2.3311176e+04 
1.1039924e+04 4.9560605e+04 1.5207653e+04 
-1.4447966e+03 -7.2744569e+02 -2.8176165e+02 
1.0808823e+03 -1.0625965e+05 4.9830482e+04 
1.4941605e+04 2.7725954e+04 -1.3892683e+04 
-1.1608354e+03 -6.5797279e+02 -2.9546421e+02 
-2.3450906e+03 3.7969253e+03 -4.5480418e+03 
1.5744122e+03 -1.0242859e+05 4.7964862e+04 
1.4491439e+04 2.8242564e+04 -1.4060216e+04 
-1.1776714e+03 -6.3109313e+02 -2.8260577e+02 
-2.0789809e+03 3.6809292e+02 -2.3681792e+03 
-1.6642681e+03 1.3905170e+03 -2.7449204e+03 
-1.3225758e+03 -6.6157562e+02 -2.7194558e+02 
-1.8600065e+03 -1.7487146e+03 -5.6456959e+02 
-1.7349507e+03 1.6578597e+03 -2.5926903e+03 
1.8434407e+03 -9.7697390e+04 4.5740464e+04 
1.4154950e+04 2.7965192e+04 -1.4048313e+04 
-1.2025518e+03 -6.2601811e+02 -2.7588856e+02 
-1.4306294e+03 1.3554142e+03 -2.3518600e+03 
-1.9281996e+03 5.8482539e+02 -2.0324722e+03 
-1.5829846e+03 -1.0981050e+03 -3.8420327e+02 
-1.4422092e+03 1.0183272e+03 -2.0193364e+03 
-1.6136575e+03 6.1769707e+02 -1.8220088e+03 
-1.4633175e+03 -8.6671988e+02 -3.2142298e+02 
1.9119644e+03 -9.3021112e+04 4.3596415e+04 
1.3889669e+04 2.7635266e+04 -1.4088169e+04 
-1.2295058e+03 -6.4443358e+02 -2.7665340e+02 
-1.7654684e+03 4.7167362e+02 -1.6027611e+03 
-1.2675547e+03 1.1505106e+03 -2.0056149e+03 
-1.6722178e+03 -1.4901868e+03 -5.0758934e+02 
-1.3485453e+03 -7.4223770e+02 -2.9241759e+02 
-1.4127810e+03 9.7039019e+02 -1.8027856e+03 
-1.5287984e+03 6.0091563e+02 -1.5582597e+03 
-1.2685949e+03 1.0220307e+03 -1.8185273e+03 
1.0657840e+04 4.7694876e+04 1.4511373e+04 
-1.1376895e+03 -6.6656906e+02 -3.0255473e+02 
-1.3467822e+03 6.1346788e+02 -1.4539104e+03 
1.8957354e+03 -8.8636790e+04 4.1679216e+04 
1.3671326e+04 2.7513428e+04 -1.4241211e+04 
-1.2520413e+03 -6.8398112e+02 -2.8395514e+02 
-1.1469705e+03 -6.4992822e+02 -2.9289066e+02 
-1.2423565e+03 8.0004544e+02 -1.5786526e+03 
-1.6270538e+03 4.5321418e+02 -1.2881016e+03 
-1.1411217e+03 1.0046691e+03 -1.7604666e+03 
-1.4460454e+03 -1.0062199e+03 -3.6412264e+02 
-1.4401799e+03 4.8452344e+02 -1.2773805e+03 
-1.1374582e+03 9.0750459e+02 -1.6188753e+03 
-1.5170338e+03 -1.2864005e+03 -4.5590917e+02 
-1.3534206e+03 -8.3605809e+02 -3.1811540e+02 
-1.1612772e+03 -6.4796159e+02 -2.8724218e+02 
-1.2097339e+03 7.1015312e+02 -1.3980842e+03 
-1.2924385e+03 5.4746722e+02 -1.2527087e+03 
-1.1195455e+03 7.9344873e+02 -1.4606471e+03 
1.8387488e+03 -8.4567779e+04 3.9932946e+04 
1.3489818e+04 2.7399809e+04 -1.4406199e+04 
-1.2639593e+03 -7.3906369e+02 -2.9644344e+02 
-1.1761657e+03 -6.6160471e+02 -2.8641592e+02 
-1.5077309e+03 4.0432299e+02 -1.0241500e+03 
-1.0428298e+03 9.1600280e+02 -1.5959545e+03 
-1.3627309e+03 4.3826660e+02 -1.0620176e+03 
-1.0346474e+03 8.3789260e+02 -1.4803943e+03 
-1.0950916e+03 6.6252574e+02 -1.2928775e+03 
-1.1699404e+03 5.5489111e+02 -1.1952238e+03 
1.0291785e+04 4.5864150e+04 1.3818459e+04 
-1.2394692e+03 4.6205893e+02 -1.0598106e+03 
-1.3895863e+03 -1.1251929e+03 -4.0759375e+02 
-1.1078254e+03 -6.6581030e+02 -3.0622949e+02 
-1.0197066e+03 7.4114836e+02 -1.3499865e+03 
-1.3328724e+03 -9.2523914e+02 -3.4250977e+02 
-1.1870654e+03 -6.8883373e+02 -2.8980453e+02 
-1.1115714e+03 -6.5581462e+02 -2.9868674e+02 
1.3335690e+04 2.7327916e+04 -1.4585753e+04 
1.7630507e+03 -8.0793195e+04 3.8329519e+04 
-1.2603426e+03 -8.0046826e+02 -3.1098466e+02 
-1.4061337e+03 3.6559865e+02 -8.1984448e+02 
-1.0700776e+03 5.8136722e+02 -1.1493648e+03 
-9.5898389e+02 8.4565049e+02 -1.4780428e+03 
-1.1344921e+03 4.8877737e+02 -1.0413008e+03 
-1.0026489e+03 6.5298056e+02 -1.2208439e+03 
-9.4864148e+02 7.8490990e+02 -1.3807439e+03 
-1.1182795e+03 -6.5521737e+02 -2.9343598e+02 
-1.2926428e+03 3.8844559e+02 -8.7771164e+02 
-1.1897499e+03 -7.2517343e+02 -2.9597539e+02 
-9.3599248e+02 7.0518379e+02 -1.2698780e+03 
-1.1913338e+03 4.1178374e+02 -9.0138617e+02 
-1.1247486e+03 -6.6470319e+02 -2.9125574e+02 
-1.0444585e+03 4.9281484e+02 -1.0076478e+03 
-9.8461150e+02 5.6515506e+02 -1.0925297e+03 
-1.2849101e+03 -9.9974494e+02 -3.6917032e+02 
1.3201374e+04 2.7267484e+04 -1.4759989e+04 
1.6784067e+03 -7.7278357e+04 3.6842680e+04 
-1.2388931e+03 -8.5593318e+02 -3.2350733e+02 
-1.3186837e+03 3.2835794e+02 -6.6048042e+02 
-9.2348903e+02 6.2711690e+02 -1.1575668e+03 
-1.1003364e+03 4.2468865e+02 -8.9910143e+02 
-8.8406457e+02 8.0109251e+02 -1.4019433e+03 
-1.2295356e+03 3.4880305e+02 -7.2761868e+02 
-8.7227069e+02 7.4493802e+02 -1.3121000e+03 
-1.1277848e+03 -6.8255914e+02 -2.9149193e+02 
9.9420507e+03 4.4077738e+04 1.3133089e+04 
-1.1811323e+03 -7.6410405e+02 -3.0286249e+02 
-1.0742447e+03 -6.5873327e+02 -3.0749371e+02 
-9.6704076e+02 4.9888612e+02 -9.7606148e+02 
-1.0740295e+03 -6.5286989e+02 -3.0127228e+02 
-1.1460880e+03 3.6582863e+02 -7.6373180e+02 
-8.6200612e+02 6.7494596e+02 -1.2121691e+03 
-1.0203555e+03 4.3556145e+02 -8.8586774e+02 
-9.1114044e+02 5.5678271e+02 -1.0486621e+03 
-1.0754050e+03 -6.5266512e+02 -2.9612758e+02 
-8.5366021e+02 6.0718260e+02 -1.1116688e+03 
-1.0678294e+03 3.7779350e+02 -7.7614853e+02 
-1.1245686e+03 -7.0549502e+02 -2.9315343e+02 
1.3080026e+04 2.7218246e+04 -1.4922844e+04 
1.5899310e+03 -7.3989412e+04 3.5455202e+04 
-1.1980367e+03 -9.0134840e+02 -3.3868854e+02 
-1.2428726e+03 2.9632449e+02 -5.3776287e+02 
-8.1284814e+02 7.7075348e+02 -1.3574313e+03 
-8.0057521e+02 7.1876916e+02 -1.2708425e+03 
-8.9872760e+02 4.9075858e+02 -9.4304836e+02 
-9.4947098e+02 4.3641886e+02 -8.6504649e+02 
-1.1600302e+03 -7.9680252e+02 -3.0709665e+02 
-1.1720604e+03 3.1270587e+02 -6.0461533e+02 
-1.0761052e+03 -6.5867004e+02 -2.9275727e+02 
-8.4574758e+02 5.4119514e+02 -1.0121080e+03 
-9.9655082e+02 3.8395028e+02 -7.7387931e+02 
-1.1033597e+03 3.2744798e+02 -6.4714095e+02 
-7.9375239e+02 6.5341922e+02 -1.1756653e+03 
-1.1131642e+03 -7.2885151e+02 -2.9460427e+02 
-1.0739486e+03 -6.6957263e+02 -2.9065295e+02 
1.0136528e+04 2.1669985e+04 4.9097645e+03 
9.6081757e+03 4.2341307e+04 1.2458286e+04 
-1.0390041e+03 -6.4757080e+02 -3.0709492e+02 
1.0801250e+04 2.3654850e+03 -9.1805590e+03 
9.4627334e+03 4.0965373e+04 1.8989522e+04 
-7.8988760e+02 5.8523150e+02 -1.0790265e+03 
-1.0360563e+03 3.3610375e+02 -6.6740976e+02 
-8.8614835e+02 4.3618029e+02 -8.4453916e+02 
-6.6112419e+01 1.2181109e+02 4.2485338e+01 
-8.3749329e+02 4.8424770e+02 -9.1719435e+02 
1.0813024e+04 2.3767976e+03 -9.2134060e+03 
9.4941292e+03 4.0819609e+04 1.8962219e+04 
1.2965498e+04 2.7155662e+04 -1.5058344e+04 
1.5004041e+03 -7.0896299e+04 3.4153559e+04 
-1.0360261e+03 -6.4413528e+02 -3.0167290e+02 
-9.3195084e+02 3.8731161e+02 -7.6434381e+02 
-1.1764858e+03 2.6781597e+02 -4.4270348e+02 
-9.3016970e+01 1.0747889e+02 5.0726636e+01 
-8.4698391e+01 2.4583147e+02 9.0775206e+01 
-7.4012959e+02 7.6682115e+02 -1.3468591e+03 
-1.1250533e+03 -8.2359443e+02 -3.1519438e+02 
-7.2981618e+02 7.0724618e+02 -1.2545548e+03 
-1.0734870e+02 2.2160357e+02 8.8598709e+01 
-1.1194856e+03 2.8100812e+02 -5.0467828e+02 
-1.0337419e+03 -6.4375864e+02 -2.9645023e+02 
1.0841316e+04 2.3605647e+03 -9.2780468e+03 
9.5423663e+03 4.0603806e+04 1.8918551e+04 
-1.0670696e+03 -6.8298143e+02 -2.8905484e+02 
-7.8612960e+02 5.3008698e+02 -9.8815141e+02 
-1.2190255e+02 9.4563465e+01 5.1545551e+01 
-1.0369533e+02 3.6974806e+02 1.4169088e+02 
-9.7280236e+02 3.4149401e+02 -6.7375289e+02 
-1.0930706e+03 -7.4639837e+02 -2.9342638e+02 
-1.0626602e+03 2.9293081e+02 -5.4817624e+02 
-1.3222425e+02 1.9987483e+02 8.4256204e+01 
-1.2386909e+02 3.3989440e+02 1.3336795e+02 
-7.2854667e+02 6.2524454e+02 -1.1527860e+03 
-1.0305835e+03 -6.4695564e+02 -2.9212591e+02 
1.0887469e+04 2.3238502e+03 -9.3669435e+03 
9.6010790e+03 4.0323139e+04 1.8858080e+04 
-8.2844130e+02 4.3033755e+02 -8.2495179e+02 
-8.7299606e+02 3.8595211e+02 -7.5085275e+02 
-1.5046668e+02 8.1000992e+01 4.5966883e+01 
-1.2296169e+02 4.9909290e+02 1.9684447e+02 
-1.4550493e+02 3.1072820e+02 1.2257790e+02 
-1.5775484e+02 1.7916491e+02 7.6136235e+01 
-7.3020365e+02 5.7648315e+02 -1.0656240e+03 
-1.4212305e+02 4.6316108e+02 1.8125200e+02 
-1.0048061e+03 2.9981756e+02 -5.7251853e+02 
-7.8118056e+02 4.7316243e+02 -8.9711229e+02 
-9.1392700e+02 3.4309216e+02 -6.7103846e+02 
-1.0542889e+03 -6.9567414e+02 -2.8681660e+02 
1.0953550e+04 2.2712816e+03 -9.4726612e+03 
9.6645800e+03 3.9982308e+04 1.8780536e+04 
1.2852209e+04 2.7128645e+04 -1.5179098e+04 
1.4115020e+03 -6.7973788e+04 3.2927307e+04 
-1.0250878e+03 -6.5274910e+02 -2.8828493e+02 
-1.6789141e+02 2.8294854e+02 1.1039741e+02 
-1.6136157e+02 4.2725317e+02 1.6470000e+02 
-1.1178246e+03 2.4263585e+02 -3.6870836e+02 
-1.7857485e+02 6.6704537e+01 3.6501139e+01 
-6.6129080e+02 7.7105786e+02 -1.3603347e+03 
-1.4375869e+02 6.3705269e+02 2.5419495e+02 
-7.3054255e+02 5.1021385e+02 -9.7206527e+02 
9.2892806e+03 4.0657943e+04 1.1796226e+04 
-6.5682142e+02 6.7544941e+02 -1.2477072e+03 
-9.4873890e+02 3.0337237e+02 -5.8365463e+02 
-1.0628747e+03 -7.6127410e+02 -2.9701641e+02 
-1.6252152e+02 5.9509527e+02 2.3405216e+02 
-1.8336578e+02 1.5901014e+02 6.5507128e+01 
-1.0711587e+03 2.5248469e+02 -4.2323212e+02 
-1.0034666e+03 -6.3393001e+02 -3.0560887e+02 
-1.8082246e+02 3.9236834e+02 1.4771262e+02 
-8.1849970e+02 3.8351258e+02 -7.3754167e+02 
-9.9861281e+02 -6.3177562e+02 -3.0062435e+02 
-1.9078711e+02 2.5639454e+02 9.7111857e+01 
-8.5914384e+02 3.4262355e+02 -6.6365190e+02 
-1.7989999e+02 5.5123507e+02 2.1024363e+02 
-6.6520038e+02 6.3898192e+02 -1.1626195e+03 
-1.0238440e+03 2.6204280e+02 -4.6461268e+02 
-7.7473934e+02 4.2538825e+02 -8.1049148e+02 
-1.0160451e+03 -6.5946255e+02 -2.8441076e+02 
1.1040380e+04 2.1994976e+03 -9.6067290e+03 
9.7277753e+03 3.9585086e+04 1.8685263e+04 
-1.0354813e+03 -7.0317217e+02 -2.8207329e+02 
-2.0632876e+02 5.1968883e+01 2.4957193e+01 
-1.6661456e+02 7.9171336e+02 3.2543629e+02 
-9.9388501e+02 -6.3092873e+02 -2.9524195e+02 
-7.2797603e+02 4.6641769e+02 -8.8743853e+02 
-2.0905425e+02 1.3925148e+02 5.3449689e+01 
-1.8606843e+02 7.3894033e+02 2.9202393e+02 
-8.9524811e+02 3.0430233e+02 -5.8580643e+02 
-2.0105738e+02 3.5873322e+02 1.3011953e+02 
-1.9683929e+02 5.0769243e+02 1.8518745e+02 
-6.7455467e+02 5.3263649e+02 -1.0530844e+03 
-9.7398663e+02 2.6695427e+02 -4.8977927e+02 
-2.1431351e+02 2.3075425e+02 8.2993249e+01 
-9.8821997e+02 -6.3189338e+02 -2.9016192e+02 
-2.0251752e+02 6.8294687e+02 2.5256759e+02 
1.2732714e+04 2.7038945e+04 -1.5236904e+04 
1.3242662e+03 -6.5201096e+04 3.1767899e+04 
-8.0764214e+02 3.3981778e+02 -6.5396022e+02 
-5.6526891e+02 7.7669138e+02 -1.3963536e+03 
1.1155883e+04 2.1285499e+03 -9.7153870e+03 
9.7861384e+03 3.9134660e+04 1.8571350e+04 
-7.6704540e+02 3.7909920e+02 -7.2564155e+02 
-1.0655211e+03 2.2007426e+02 -3.1051250e+02 
-1.0027579e+03 -6.6489415e+02 -2.7967435e+02 
-9.2434229e+02 2.6917150e+02 -5.0326731e+02 
-2.1406336e+02 4.6753107e+02 1.6613067e+02 
-2.3377446e+02 3.7125340e+01 1.2739079e+01 
-6.7733041e+02 5.0398080e+02 -9.7455580e+02 
-1.9410600e+02 9.5921171e+02 3.9131381e+02 
-1.0265936e+03 2.2680896e+02 -3.5665830e+02 
-2.2229491e+02 3.2696742e+02 1.1430910e+02 
-5.7938392e+02 7.7221866e+02 -1.3059904e+03 
-2.1554861e+02 6.3352998e+02 2.3000529e+02 
-2.1650257e+02 8.9336754e+02 3.4129227e+02 
-8.4444758e+02 3.0289717e+02 -5.8214146e+02 
-2.3488536e+02 1.1980584e+02 4.0685574e+01 
-7.2322290e+02 4.1950512e+02 -8.0129311e+02 
-1.0091592e+03 -7.1053562e+02 -2.8291841e+02 
-9.8066150e+02 -6.3396928e+02 -2.8506811e+02 
-6.1012705e+02 5.0835763e+02 -1.1337933e+03 
-9.8683214e+02 2.3396201e+02 -3.9399121e+02 
-2.3848003e+02 2.0601943e+02 6.9145922e+01 
-2.2779161e+02 8.3589183e+02 3.2012998e+02 
8.9842882e+03 3.9028946e+04 1.1148445e+04 
-2.3337002e+02 4.2777465e+02 1.4510953e+02 
-2.3064993e+02 5.8163912e+02 1.9748099e+02 
-6.7577599e+02 4.5961295e+02 -8.8697347e+02 
-9.6849471e+02 -6.1892957e+02 -3.0344893e+02 
-8.7585728e+02 2.6887188e+02 -5.0803382e+02 
1.1295373e+04 2.0121934e+03 -9.9282179e+03 
9.8358156e+03 3.8633940e+04 1.8437963e+04 
-6.2194656e+02 5.2755717e+02 -1.0776475e+03 
-9.4369397e+02 2.3708838e+02 -4.1792922e+02 
-9.8531027e+02 -6.6579877e+02 -2.7265747e+02 
-9.6240990e+02 -6.1730400e+02 -2.9866091e+02 
-2.4494930e+02 2.9590005e+02 9.8018235e+01 
-2.3968266e+02 7.6291305e+02 2.5465217e+02 
-2.6087481e+02 2.2361864e+01 6.1330926e-01 
-2.2717276e+02 1.1583414e+03 4.8757379e+02 
-9.7044268e+02 -6.3600616e+02 -2.7961677e+02 
-7.5841324e+02 3.3633287e+02 -6.4415412e+02 
-2.6077591e+02 1.0072183e+02 2.8007328e+01 
-2.4678652e+02 1.0983717e+03 4.7991810e+02 
-7.1711549e+02 3.7539672e+02 -7.1704478e+02 
-7.9594541e+02 3.0001476e+02 -5.7515751e+02 
-9.5610613e+02 -6.1584183e+02 -2.9308059e+02 
-2.4760318e+02 5.3537157e+02 1.7819757e+02 
-8.9971577e+02 2.3784294e+02 -4.3176184e+02 
1.2640446e+04 2.6611965e+04 -1.5085271e+04 
1.2393639e+03 -6.2561258e+04 3.0668263e+04 
-2.6325499e+02 1.8174345e+02 5.5161807e+01 
-6.2397980e+02 4.9512623e+02 -9.9134779e+02 
-2.6423449e+02 9.7660043e+02 3.0756977e+02 
-1.0184958e+03 1.9970006e+02 -2.6421248e+02 
-2.5032240e+02 7.0775524e+02 2.3513287e+02 
-8.2893731e+02 2.6672150e+02 -5.0673485e+02 
-2.5453193e+02 3.9016166e+02 1.2798336e+02 
-6.7190066e+02 4.1750536e+02 -7.9946883e+02 
-4.2276409e+02 1.2254021e+03 -1.5869764e+03 
-9.4887937e+02 -6.1504680e+02 -2.8741588e+02 
-9.8537267e+02 2.0347928e+02 -3.0188739e+02 
-5.3008819e+02 3.4238521e+02 -1.1692903e+03 
-9.5717540e+02 -6.3653609e+02 -2.7322854e+02 
-2.6542867e+02 9.1697631e+02 2.9877752e+02 
-2.6869798e+02 2.6580112e+02 8.2874452e+01 
1.1459720e+04 1.9030225e+03 -1.0115745e+04 
9.8737025e+03 3.8085761e+04 1.8284488e+04 
-9.6212167e+02 -6.6848487e+02 -2.7184861e+02 
-5.6082354e+02 5.0923218e+02 -1.1936674e+03 
-2.5368420e+02 1.4549204e+03 8.2404584e+02 
-2.8747993e+02 7.8125199e+00 -1.0949441e+01 
-9.5159926e+02 2.0835090e+02 -3.3423123e+02 
-6.2189224e+02 4.6234204e+02 -9.0058535e+02 
-8.5586865e+02 2.3642974e+02 -4.3758991e+02 
-2.6789861e+02 4.8891962e+02 1.5761961e+02 
-3.1246266e+02 1.2202123e+03 3.2901518e+02 
-9.4012469e+02 -6.1442786e+02 -2.8142552e+02 
-2.6632453e+02 6.4971992e+02 2.0928051e+02 
-2.8655259e+02 8.1911864e+01 1.5549555e+01 
-7.1022225e+02 3.3205733e+02 -6.3490019e+02 
-7.4904898e+02 2.9582659e+02 -5.6627508e+02 
-7.8347783e+02 2.6295535e+02 -5.0122740e+02 
-9.1406693e+02 2.0968646e+02 -3.5559704e+02 
-2.7524975e+02 8.4429145e+02 2.6454021e+02 
-2.7756982e+02 3.5294931e+02 1.1066917e+02 
-6.6699458e+02 3.7247818e+02 -7.1164734e+02 
-5.6464365e+02 5.2287852e+02 -1.1225989e+03 
-2.8830577e+02 1.5796206e+02 4.1651493e+01 
-3.0019462e+02 1.1806197e+03 3.7231554e+02 
-9.4104929e+02 -6.3315619e+02 -2.6478550e+02 
8.6920635e+03 3.7454411e+04 1.0516009e+04 
-9.3460227e+02 -6.0332679e+02 -3.0090430e+02 
-9.2937271e+02 -6.1321853e+02 -2.7490132e+02 
-6.1846160e+02 4.1782012e+02 -8.0441451e+02 
-3.0223500e+02 1.0925605e+03 3.3243499e+02 
-8.1270650e+02 2.3325077e+02 -4.3735975e+02 
-2.9319841e+02 2.3613244e+02 6.7810173e+01 
-9.2774668e+02 -6.0174987e+02 -2.9615261e+02 
-8.7505319e+02 2.0904487e+02 -3.6843470e+02 
-2.8601275e+02 5.9338484e+02 1.8853391e+02 
-5.6193752e+02 5.1245511e+02 -1.0282203e+03 
7.7184654e+03 -1.0519073e+02 -4.7218700e+04 
9.8974713e+03 3.7493051e+04 1.8110685e+04 
1.1572180e+03 -6.0040425e+04 2.9622429e+04 
-2.9029912e+02 7.7433429e+02 2.4282140e+02 
-2.9045901e+02 4.4353035e+02 1.3896157e+02 
-8.9720783e+03 -3.1372277e+04 -6.8454534e+04 
-3.1337934e+02 -6.4761622e+00 -2.1855882e+01 
-9.7588348e+02 1.8110347e+02 -2.2687670e+02 
-9.2047660e+02 -5.9961982e+02 -2.9036379e+02 
-9.4713928e+02 1.8216751e+02 -2.5649478e+02 
-8.7355341e+03 -3.0918247e+04 -6.7336073e+04 
-3.1191291e+02 6.3425424e+01 3.5907096e+00 
-7.0287105e+02 2.9083543e+02 -5.5632498e+02 
-3.1091438e+02 1.0041416e+03 3.1295776e+02 
-3.0168511e+02 3.1647880e+02 9.4103782e+01 
-6.6176152e+02 3.2813158e+02 -6.2644272e+02 
-7.3909293e+02 2.5800920e+02 -4.9282472e+02 
-8.5323921e+03 -3.0336763e+04 -6.6123541e+04 
-5.5852275e+02 4.7080127e+02 -9.1754664e+02 
-9.1811509e+02 1.8485740e+02 -2.8349681e+02 
-9.1233875e+02 -5.9743834e+02 -2.8424801e+02 
-3.1325373e+02 1.3454846e+02 2.8418176e+01 
-8.3546060e+02 2.0645125e+02 -3.7410201e+02 
-9.1643010e+02 -6.1046343e+02 -2.6743645e+02 
-9.2040411e+02 -6.3299071e+02 -2.6302260e+02 
-7.7034183e+02 2.2860377e+02 -4.3256503e+02 
-6.1497788e+02 3.7091067e+02 -7.0947844e+02 
-3.1030470e+02 7.0282122e+02 2.1803428e+02 
-3.0857151e+02 5.3719953e+02 1.6708325e+02 
-8.8524988e+02 1.8447697e+02 -3.0155202e+02 
-8.3837669e+03 -2.9785396e+04 -6.4899339e+04 
-3.1784436e+02 2.0702649e+02 5.3170946e+01 
-3.2732502e+02 9.0948910e+02 2.8359461e+02 
-3.1442766e+02 3.9876138e+02 1.2025532e+02 
-9.0296828e+02 -5.9486819e+02 -2.7762301e+02 
9.9055318e+03 3.6858902e+04 1.7916676e+04 
-5.5627590e+02 4.2024834e+02 -8.0592078e+02 
-7.9590895e+02 2.0227327e+02 -3.7402477e+02 
-3.3831747e+02 -2.0445089e+01 -3.2079089e+01 
-9.0153433e+02 -6.0433803e+02 -2.5813108e+02 
-3.2615202e+02 2.8069090e+02 7.7706445e+01 
-8.2616415e+03 -2.9276307e+04 -6.3666370e+04 
-3.3653203e+02 4.5280089e+01 -7.8873564e+00 
-6.5647674e+02 2.8518358e+02 -5.4516518e+02 
-6.9519589e+02 2.5182216e+02 -4.8205430e+02 
-8.5055950e+02 1.8245061e+02 -3.1250607e+02 
8.4114984e+03 3.5933651e+04 9.8996438e+03 
-3.3281724e+02 6.3313061e+02 1.9439530e+02 
-7.2862586e+02 2.2265264e+02 -4.2419232e+02 
1.0780895e+03 -5.7627244e+04 2.8625313e+04 
-8.9209290e+02 -5.9141391e+02 -2.7037728e+02 
-9.0206602e+02 -5.8761681e+02 -2.9816682e+02 
-6.1186632e+02 3.2356376e+02 -6.1823897e+02 
-3.4747804e+02 8.1747445e+02 2.5595191e+02 
-3.3764502e+02 1.1160122e+02 1.5618891e+01 
-3.3244168e+02 4.8245379e+02 1.4625603e+02 
-9.3698993e+02 1.6397959e+02 -1.9634125e+02 
-8.9476281e+02 -5.8579554e+02 -2.9334912e+02 
-9.1157761e+02 1.6257566e+02 -2.1855818e+02 
-8.1481650e+03 -2.8783923e+04 -6.2419252e+04 
-3.3874714e+02 3.5518009e+02 1.0196270e+02 
-8.1483939e+02 1.7871597e+02 -3.1718375e+02 
-7.5664771e+02 1.9666810e+02 -3.6929521e+02 
-3.4207465e+02 1.7855191e+02 3.8843100e+01 
-5.5540809e+02 3.6617570e+02 -6.9845352e+02 
-8.8694787e+02 -5.8299819e+02 -2.8735453e+02 
-8.8633562e+02 1.6323401e+02 -2.4025845e+02 
-8.8296567e+02 -6.0247849e+02 -2.5584227e+02 
-8.7964042e+02 -5.8647530e+02 -2.6222673e+02 
9.8969583e+03 3.6186612e+04 1.7702973e+04 
-8.7833990e+02 -5.7972039e+02 -2.8089060e+02 
-8.5735716e+02 1.6121566e+02 -2.5466544e+02 
-3.6204291e+02 -3.4046353e+01 -4.1696693e+01 
-3.6949315e+02 7.2966759e+02 2.2779707e+02 
-3.5634255e+02 5.6606246e+02 1.7069877e+02 
-3.5023204e+02 2.4589447e+02 6.1695413e+01 
-6.5118547e+02 2.4467493e+02 -4.6887528e+02 
-6.8722993e+02 2.1538165e+02 -4.1270502e+02 
-6.0915552e+02 2.7822755e+02 -5.3257266e+02 
-3.6008035e+02 2.7563773e+01 -1.8847142e+01 
-3.5649940e+02 4.2965410e+02 1.2563773e+02 
-8.0341052e+03 -2.8294062e+04 -6.1154410e+04 
-7.7871443e+02 1.7354153e+02 -3.1657127e+02 
-8.6873534e+02 -5.7573356e+02 -2.7381777e+02 
-3.6106889e+02 8.9222651e+01 3.2533001e+00 
-8.2642050e+02 1.5786465e+02 -2.6322528e+02 
-7.1770778e+02 1.8978907e+02 -3.6068942e+02 
-5.5564725e+02 3.1368852e+02 -5.9841687e+02 
-3.6259599e+02 3.1313306e+02 8.4011879e+01 
-8.6586265e+02 -5.7861959e+02 -2.5242277e+02 
1.0021284e+03 -5.5312352e+04 2.7672542e+04 
-3.6537335e+02 1.5091355e+02 2.4953401e+01 
-9.0125292e+02 1.4808362e+02 -1.7100590e+02 
-3.9176558e+02 6.4784823e+02 2.0066792e+02 
-8.7840708e+02 1.4447217e+02 -1.8658177e+02 
-7.9150131e+03 -2.7798054e+04 -5.9869267e+04 
-3.7964530e+02 5.0266221e+02 1.4765780e+02 
-7.4251355e+02 1.6704301e+02 -3.1145533e+02 
-8.5799048e+02 -5.7073029e+02 -2.6609338e+02 
8.1415578e+03 3.4465486e+04 9.2998215e+03 
-7.9419945e+02 1.5302678e+02 -2.6637053e+02 
-8.7100605e+02 -5.7211001e+02 -2.9535706e+02 
-8.5619700e+02 1.4326351e+02 -2.0324649e+02 
9.8713868e+03 3.5479652e+04 1.7470403e+04 
-3.7333889e+02 2.1234138e+02 4.6120052e+01 
-6.4581965e+02 2.0690453e+02 -3.9804699e+02 
-6.0669924e+02 2.3572624e+02 -4.5319704e+02 
-8.6347835e+02 -5.6987799e+02 -2.9041135e+02 
-3.8432656e+02 -4.7214414e+01 -5.0771744e+01 
-3.7984319e+02 3.7940363e+02 1.0557976e+02 
-3.8227180e+02 1.0372557e+01 -2.9303156e+01 
-6.7895905e+02 1.8152443e+02 -3.4855320e+02 
-5.5659955e+02 2.6444757e+02 -5.0675471e+02 
-8.5540478e+02 -5.6644414e+02 -2.8422128e+02 
-8.4900368e+02 -5.7578922e+02 -2.4986580e+02 
-8.3046531e+02 1.3971743e+02 -2.1394763e+02 
-8.4610644e+02 -5.6435179e+02 -2.5751663e+02 
-3.8317260e+02 6.7562647e+01 -8.6186527e+00 
-7.6128940e+02 1.4691526e+02 -2.6476201e+02 
-3.8533035e+02 2.7299480e+02 6.6614962e+01 
-7.0638991e+02 1.5931076e+02 -3.0240733e+02 
-7.7891251e+03 -2.7292095e+04 -5.8563004e+04 
-4.1335560e+02 5.7238147e+02 1.7448786e+02 
-8.4661990e+02 -5.6229346e+02 -2.7748652e+02 
-3.8733396e+02 1.2430071e+02 1.1566767e+01 
-8.0278377e+02 1.3511468e+02 -2.1986871e+02 
-4.0193038e+02 4.4334244e+02 1.2534015e+02 
-8.3702628e+02 -5.5727211e+02 -2.7009781e+02 
-6.0429144e+02 1.9652572e+02 -3.8037282e+02 
-8.3333116e+02 -5.5542927e+02 -2.4744562e+02 
9.2940792e+02 -5.3087964e+04 2.6760334e+04 
-4.0186110e+02 3.3203711e+02 8.6212520e+01 
-7.2805415e+02 1.3959148e+02 -2.5893561e+02 
-8.6821427e+02 1.3323019e+02 -1.4969216e+02 
-3.9502424e+02 1.8028317e+02 3.1121161e+01 
-6.4027240e+02 1.7202755e+02 -3.3288256e+02 
-5.5787092e+02 2.1935817e+02 -4.2363096e+02 
9.8289089e+03 3.4741629e+04 1.7220062e+04 
-7.7370696e+02 1.2924025e+02 -2.2117190e+02 
-4.0498182e+02 -5.9879982e+01 -5.9359058e+01 
-8.4737665e+02 1.2766545e+02 -1.5940326e+02 
-6.7035845e+02 1.5023570e+02 -2.8969731e+02 
-7.6560269e+03 -2.6774841e+04 -5.7235945e+04 
-4.0287563e+02 -6.1843708e+00 -3.9251244e+01 
-8.2656234e+02 -5.5119994e+02 -2.6205945e+02 
-8.2761899e+02 1.2476826e+02 -1.7142409e+02 
-4.3363124e+02 5.0331548e+02 1.4955930e+02 
7.8813028e+03 3.3048452e+04 8.7168358e+03 
-8.4144262e+02 -5.5698934e+02 -2.9254476e+02 
-4.0650450e+02 2.3501732e+02 4.9901596e+01 
-4.0368603e+02 4.6763454e+01 -1.9958899e+01 
-4.2266606e+02 3.8830934e+02 1.0399049e+02 
-8.3384160e+02 -5.5426461e+02 -2.8743748e+02 
-7.4378135e+02 1.2225752e+02 -2.1827660e+02 
-8.1789421e+02 -5.5206862e+02 -2.4476677e+02 
-8.0461273e+02 1.1981818e+02 -1.7853827e+02 
-6.9472321e+02 1.3112569e+02 -2.4930462e+02 
-4.0765567e+02 9.8891628e+01 -1.2298119e+00 
-8.2569978e+02 -5.5024114e+02 -2.8106620e+02 
-8.1527183e+02 -5.4387966e+02 -2.5322636e+02 
-6.0172792e+02 1.6064187e+02 -3.1399792e+02 
-5.5911820e+02 1.7850810e+02 -3.4866278e+02 
-7.7975537e+02 1.1405630e+02 -1.8176571e+02 
-4.2214769e+02 2.8775714e+02 6.7720317e+01 
-8.1692814e+02 -5.4538970e+02 -2.7411866e+02 
-4.1498007e+02 1.4990744e+02 1.6800937e+01 
-6.3443846e+02 1.3997017e+02 -2.7334248e+02 
-7.5159978e+03 -2.6246447e+04 -5.5889406e+04 
-7.1337549e+02 1.1419602e+02 -2.1153063e+02 
9.7699674e+03 3.3976221e+04 1.6953239e+04 
-4.5221637e+02 4.4036960e+02 1.2596716e+02 
-4.2387008e+02 -7.1972246e+01 -6.7486545e+01 
8.5994785e+02 -5.0947552e+04 2.5885390e+04 
-6.6140942e+02 1.2139852e+02 -2.3606569e+02 
-8.0749738e+02 -5.3960628e+02 -2.6650622e+02 
-8.3749771e+02 1.1927728e+02 -1.3153138e+02 
-4.2172446e+02 -2.2004727e+01 -4.8684290e+01 
-7.5349224e+02 1.0722167e+02 -1.8108583e+02 
-8.0338932e+02 -5.3431829e+02 -2.4303100e+02 
-4.2582846e+02 1.9936802e+02 3.4006341e+01 
-8.1826175e+02 1.1200177e+02 -1.3612313e+02 
-4.4153475e+02 3.3755052e+02 8.3737951e+01 
-4.2241915e+02 2.6953394e+01 -3.0723387e+01 
-8.0050937e+02 1.0759572e+02 -1.4394753e+02 
-7.9739682e+02 -5.3279479e+02 -2.5826430e+02 
-6.8275936e+02 1.0510544e+02 -2.0121913e+02 
-4.2613889e+02 7.4825777e+01 -1.3368812e+01 
-7.2631269e+02 9.9444802e+01 -1.7674787e+02 
-5.6006280e+02 1.4171170e+02 -2.8127436e+02 
-7.3696457e+03 -2.5707840e+04 -5.4525428e+04 
-7.7980541e+02 1.0137514e+02 -1.4770043e+02 
-5.9883459e+02 1.2794001e+02 -2.5380401e+02 
-4.4046411e+02 2.4663070e+02 5.0223991e+01 
7.6298972e+03 3.1680936e+04 8.1508502e+03 
-7.8914886e+02 -5.3068689e+02 -2.4030703e+02 
-8.1333523e+02 -5.4235219e+02 -2.8976497e+02 
-8.0576099e+02 -5.3910780e+02 -2.8448234e+02 
-6.2823354e+02 1.1059017e+02 -2.1925402e+02 
-4.6889275e+02 3.8315580e+02 1.0381485e+02 
-4.3301385e+02 1.2134536e+02 3.2510921e+00 
-7.5740257e+02 9.4555508e+01 -1.4830437e+02 
-7.8669333e+02 -5.2486353e+02 -2.4928367e+02 
-7.9767416e+02 -5.3454920e+02 -2.7794640e+02 
9.6952648e+03 3.3187113e+04 1.6671361e+04 
-6.9857037e+02 9.0729507e+01 -1.6895983e+02 
-4.4090186e+02 -8.3426552e+01 -7.5161333e+01 
-4.3871105e+02 -3.6999405e+01 -5.7585381e+01 
-4.5836373e+02 2.9094371e+02 6.4697407e+01 
-6.5210622e+02 9.4870766e+01 -1.8747981e+02 
-4.4313811e+02 1.6612832e+02 1.9024076e+01 
-7.8903494e+02 -5.2913045e+02 -2.7083003e+02 
-7.3365029e+02 8.6845760e+01 -1.4562117e+02 
-4.3925549e+02 8.2344415e+00 -4.0873656e+01 
7.9373095e+02 -4.8885603e+04 2.5044822e+04 
-8.0879207e+02 1.0611753e+02 -1.1588298e+02 
-7.7560381e+02 -5.1493543e+02 -2.3904889e+02 
-7.2177164e+03 -2.5160376e+04 -5.3146593e+04 
-5.6049363e+02 1.0860576e+02 -2.2080867e+02 
-7.9086160e+02 9.7355836e+01 -1.1604443e+02 
-7.7985622e+02 -5.2277964e+02 -2.6305820e+02 
-4.4266890e+02 5.2203300e+01 -2.4792714e+01 
-5.9547910e+02 9.8176312e+01 -1.9942277e+02 
-4.5669109e+02 2.0863729e+02 3.3817343e+01 
-6.7054995e+02 8.1114505e+01 -1.5790947e+02 
-7.7476899e+02 9.1616013e+01 -1.2013272e+02 
-7.0897931e+02 7.8352925e+01 -1.3978302e+02 
-4.8355674e+02 3.3123140e+02 8.3153477e+01 
-4.4902649e+02 9.4671156e+01 -9.4621280e+00 
-7.5602406e+02 8.4259922e+01 -1.2080668e+02 
-6.2160096e+02 8.3690480e+01 -1.7035200e+02 
-7.7015757e+02 -5.1545446e+02 -2.5468593e+02 
-7.6238251e+02 -5.1117878e+02 -2.3631390e+02 
7.3866061e+03 3.0361267e+04 7.6019352e+03 
9.6056848e+03 3.2377940e+04 1.6375928e+04 
-4.7308485e+02 2.4829414e+02 4.6937260e+01 
-7.8660911e+02 -5.2823995e+02 -2.8703006e+02 
-7.3576009e+02 7.6488456e+01 -1.1893583e+02 
-4.5603272e+02 -9.4188430e+01 -8.2373849e+01 
-6.8371693e+02 6.9064004e+01 -1.3089829e+02 
-7.7912593e+02 -5.2448381e+02 -2.8157188e+02 
-4.5836295e+02 1.3531501e+02 5.0237063e+00 
-4.5378178e+02 -5.1098247e+01 -6.5932875e+01 
-6.4245660e+02 7.0487268e+01 -1.4368464e+02 
-7.6001676e+02 -5.0713032e+02 -2.4562612e+02 
-7.0609923e+03 -2.4605603e+04 -5.1755848e+04 
-7.7117089e+02 -5.1944712e+02 -2.7488915e+02 
-5.6026224e+02 7.8788646e+01 -1.6661731e+02 
-4.5414038e+02 -9.3197702e+00 -5.0374902e+01 
-7.1424467e+02 6.7991012e+01 -1.1431012e+02 
7.3071430e+02 -4.6897416e+04 2.4236088e+04 
-7.6273493e+02 -5.1356578e+02 -2.6763805e+02 
-5.9157184e+02 7.1082161e+01 -1.5044859e+02 
-4.7079609e+02 1.7369303e+02 1.8557190e+01 
-7.8183829e+02 9.3669029e+01 -1.0227316e+02 
-4.5719939e+02 3.1084900e+01 -3.5458399e+01 
-4.9618219e+02 2.8415454e+02 6.4012238e+01 
-7.6499703e+02 8.3625463e+01 -9.8625823e+01 
-7.4963171e+02 -4.9700570e+02 -2.3539992e+02 
-6.5814484e+02 5.9009423e+01 -1.1908152e+02 
-7.5385581e+02 -5.0678768e+02 -2.5975207e+02 
-7.5029619e+02 7.6717164e+01 -9.9424639e+01 
-6.9185244e+02 5.8859781e+01 -1.0698459e+02 
-4.6298970e+02 6.9911989e+01 -2.1292101e+01 
-6.1451116e+02 5.9063867e+01 -1.2632192e+02 
-4.8570141e+02 2.0937283e+02 3.0496750e+01 
-7.3323126e+02 6.8357358e+01 -9.7325372e+01 
9.5022285e+03 3.1552234e+04 1.6068476e+04 
-7.4456979e+02 -4.9910350e+02 -2.5129785e+02 
-6.9002395e+03 -2.4045135e+04 -5.0356364e+04 
-4.6925722e+02 -1.0421638e+02 -8.9104615e+01 
-4.7150087e+02 1.0689495e+02 -7.9532283e+00 
-7.3728950e+02 -4.9319949e+02 -2.3266335e+02 
-4.6692771e+02 -6.4251586e+01 -7.3702932e+01 
-6.3247973e+02 4.8080282e+01 -1.0438067e+02 
-5.5927497e+02 5.1862249e+01 -1.1809205e+02 
-6.6887862e+02 4.9070190e+01 -9.6998516e+01 
-7.1483718e+02 5.9739314e+01 -9.3172876e+01 
7.1507890e+03 2.9087776e+04 7.0700952e+03 
-4.6706873e+02 -2.5663834e+01 -5.9198335e+01 
-7.6117261e+02 -5.1465872e+02 -2.8433837e+02 
-5.8706193e+02 4.6387106e+01 -1.0646622e+02 
-7.3495818e+02 -4.9052962e+02 -2.4220102e+02 
-7.5381995e+02 -5.1041984e+02 -2.7871352e+02 
-5.0679711e+02 2.4150433e+02 4.6392488e+01 
-4.8280651e+02 1.4167452e+02 4.4732238e+00 
-4.6973641e+02 1.1496759e+01 -4.5335039e+01 
-6.9531306e+02 5.0541036e+01 -8.6717115e+01 
-7.4604179e+02 -5.0496169e+02 -2.7190269e+02 
6.7083735e+02 -4.4978954e+04 2.3456939e+04 
-7.5641932e+02 8.1868676e+01 -9.0349736e+01 
-6.4559074e+02 3.8647540e+01 -8.4413264e+01 
-7.3784756e+02 -4.9870134e+02 -2.6454422e+02 
-4.7492725e+02 4.7056836e+01 -3.2210814e+01 
-6.0695800e+02 3.6504748e+01 -8.6824145e+01 
-7.4050848e+02 7.0726335e+01 -8.3444772e+01 
-7.2520018e+02 -4.8031329e+02 -2.3200876e+02 
-6.7498209e+02 4.0845681e+01 -7.7964558e+01 
-4.9626542e+02 1.7393647e+02 1.5386757e+01 
-7.2699032e+02 6.2802325e+01 -8.1372038e+01 
-6.7361828e+03 -2.3480574e+04 -4.8951414e+04 
-7.2928843e+02 -4.9159816e+02 -2.5657666e+02 
-4.8259761e+02 8.0799617e+01 -1.9886566e+01 
9.3859646e+03 3.0713384e+04 1.5750536e+04 
-7.1137765e+02 5.3563710e+01 -7.6806733e+01 
-4.8060187e+02 -1.1348272e+02 -9.5329748e+01 
-5.5748359e+02 2.7466069e+01 -7.4681587e+01 
-4.7817554e+02 -7.6429941e+01 -8.0872814e+01 
-6.2220309e+02 2.7485466e+01 -6.9245343e+01 
-6.5410549e+02 3.0621480e+01 -6.6908491e+01 
-7.1362559e+02 -4.7649218e+02 -2.2926700e+02 
-7.2040873e+02 -4.8366179e+02 -2.4807282e+02 
-4.7807351e+02 -4.0777814e+01 -6.7321674e+01 
-5.1546614e+02 2.0289258e+02 3.0275244e+01 
-6.9462434e+02 4.4200600e+01 -7.0586619e+01 
-5.8193068e+02 2.3840395e+01 -6.7070201e+01 
-4.9279029e+02 1.1243440e+02 -8.4282868e+00 
-4.8032459e+02 -6.5639487e+00 -5.4403446e+01 
6.9218905e+03 2.7858831e+04 6.5552874e+03 
-7.3692830e+02 -5.0159331e+02 -2.8168022e+02 
-6.7687297e+02 3.4385125e+01 -6.2443051e+01 
-7.1128902e+02 -4.7493217e+02 -2.3896477e+02 
-7.2972864e+02 -4.9691260e+02 -2.7590353e+02 
-6.3293024e+02 1.9890328e+01 -5.3572718e+01 
-4.8489956e+02 2.6065581e+01 -4.2205419e+01 
-5.9895359e+02 1.5820763e+01 -5.1512588e+01 
6.1402768e+02 -4.3126720e+04 2.2705374e+04 
-5.0486074e+02 1.4174126e+02 1.5968707e+00 
-6.5694961e+03 -2.2913462e+04 -4.7544284e+04 
-7.3235238e+02 7.0666830e+01 -7.9848842e+01 
-7.2215119e+02 -4.9108754e+02 -2.6898372e+02 
-7.1725427e+02 5.8588097e+01 -7.0169141e+01 
-6.5840087e+02 2.4195679e+01 -5.2354158e+01 
-7.1421582e+02 -4.8451624e+02 -2.6154077e+02 
-4.9173119e+02 5.6936240e+01 -3.0773833e+01 
-7.0475428e+02 4.9787201e+01 -6.5606463e+01 
-7.0209091e+02 -4.6468787e+02 -2.2881860e+02 
-5.5487575e+02 5.2853800e+00 -3.5892859e+01 
9.2579904e+03 2.9864611e+04 1.5423612e+04 
-4.9011830e+02 -1.2197330e+02 -1.0102544e+02 
-6.1165940e+02 8.5478512e+00 -3.7949808e+01 
-6.9040700e+02 3.9785753e+01 -5.8870319e+01 
-4.8757913e+02 -8.7622227e+01 -8.7423161e+01 
-5.2227824e+02 1.6796605e+02 1.5624151e+01 
-7.0597980e+02 -4.7716412e+02 -2.5351604e+02 
-4.8721568e+02 -5.4663633e+01 -7.4729744e+01 
-6.3943587e+02 1.3596248e+01 -4.0284110e+01 
-5.7618448e+02 3.2167119e+00 -3.1873911e+01 
-5.0084146e+02 8.5812896e+01 -2.0158809e+01 
-6.7509905e+02 2.9773152e+01 -5.0801499e+01 
-6.9119439e+02 -4.6086393e+02 -2.2606228e+02 
-4.8903579e+02 -2.3123189e+01 -6.2654647e+01 
-6.9749018e+02 -4.6905049e+02 -2.4498481e+02 
-6.4007993e+03 -2.2345246e+04 -4.6138195e+04 
-6.5892690e+02 1.9419440e+01 -4.1126761e+01 
-4.9299175e+02 6.8766916e+00 -5.1275684e+01 
-5.1159113e+02 1.1255011e+02 -1.0900243e+01 
-5.9052329e+02 -3.1637279e+00 -2.0046360e+01 
-6.2020132e+02 2.6067249e+00 -2.6231170e+01 
6.6994301e+03 2.6672858e+04 6.0574351e+03 
-6.8882448e+02 -4.6022749e+02 -2.3588157e+02 
-7.1377981e+02 -4.8901670e+02 -2.7904204e+02 
-7.0674420e+02 -4.8394091e+02 -2.7313193e+02 
5.6020509e+02 -4.1337662e+04 2.1979611e+04 
-7.0948273e+02 6.0023404e+01 -7.0570487e+01 
-5.5146623e+02 -1.4946667e+01 -1.2875628e+00 
-4.9900027e+02 3.5196513e+01 -4.0626201e+01 
-6.4212783e+02 8.8010556e+00 -2.9809736e+01 
-6.9510891e+02 4.7151205e+01 -5.8535469e+01 
-6.9937725e+02 -4.7780052e+02 -2.6612247e+02 
9.1194037e+03 2.9008942e+04 1.5089155e+04 
-6.8349630e+02 3.7598064e+01 -5.1825379e+01 
-5.2733763e+02 1.3640534e+02 2.3900437e+00 
-4.9787695e+02 -1.2968629e+02 -1.0617104e+02 
-6.8012816e+02 -4.4999396e+02 -2.2578669e+02 
-4.9521219e+02 -9.7833285e+01 -9.3339608e+01 
-6.9170417e+02 -4.7097494e+02 -2.5861510e+02 
-6.0088401e+02 -8.8758924e+00 -1.0170297e+01 
-5.6984806e+02 -1.5681447e+01 -5.1440355e-01 
-5.0706977e+02 6.1645380e+01 -3.0743391e+01 
-6.7026003e+02 2.6939792e+01 -4.3193827e+01 
-4.9457584e+02 -6.7341113e+01 -8.1414534e+01 
-6.2489829e+02 -2.1201186e+00 -1.6797590e+01 
-6.8378380e+02 -4.6343213e+02 -2.5055250e+02 
-4.9596013e+02 -3.8224712e+01 -7.0088665e+01 
-6.5623046e+02 1.6366202e+01 -3.3489816e+01 
-6.2306603e+03 -2.1777273e+04 -4.4736248e+04 
-6.6983687e+02 -4.4616813e+02 -2.2300512e+02 
-5.1657179e+02 8.6136691e+01 -2.2144253e+01 
-6.7566273e+02 -4.5519521e+02 -2.4201008e+02 
-4.9930458e+02 -1.0586384e+01 -5.9431505e+01 
-5.8170113e+02 -2.0606090e+01 7.9024763e+00 
-6.0743727e+02 -1.3325258e+01 -2.0720768e+00 
-6.4146679e+02 5.5476623e+00 -2.2444304e+01 
-5.4728917e+02 -3.3453338e+01 2.9524244e+01 
-5.0451566e+02 1.5463004e+01 -4.9465332e+01 
-6.6741433e+02 -4.4632125e+02 -2.3292230e+02 
5.0928450e+02 -3.9609093e+04 2.1278049e+04 
6.4829930e+03 2.5528352e+04 5.5764372e+03 
-5.3075730e+02 1.0792154e+02 -9.4855966e+00 
-6.8767883e+02 4.9905027e+01 -6.2360717e+01 
-6.9163574e+02 -4.7689610e+02 -2.7640891e+02 
-6.2617176e+02 -5.4395072e+00 -1.0015639e+01 
-6.8476769e+02 -4.7147394e+02 -2.7038587e+02 
-6.7396150e+02 3.6364552e+01 -4.8332442e+01 
8.9712815e+03 2.8149203e+04 1.4748556e+04 
-5.0396162e+02 -1.3663062e+02 -1.1075095e+02 
-5.0116210e+02 -1.0708113e+02 -9.8613631e+01 
-5.8991284e+02 -2.4916332e+01 1.4404183e+01 
-6.7761200e+02 -4.6506644e+02 -2.6330609e+02 
-5.6295859e+02 -3.3025334e+01 2.7345973e+01 
-6.6313106e+02 2.6170084e+01 -3.9778639e+01 
-5.1159337e+02 3.9767410e+01 -4.0216956e+01 
-5.0024766e+02 -7.8844153e+01 -8.7374978e+01 
-6.5916953e+02 -4.3612261e+02 -2.2288078e+02 
-6.7019615e+02 -4.5803477e+02 -2.5575252e+02 
-6.5087728e+02 1.4950819e+01 -2.9503476e+01 
-6.1051332e+02 -1.6634103e+01 3.8575442e+00 
-6.0595976e+03 -2.1210771e+04 -4.3341386e+04 
-5.0119911e+02 -5.1925365e+01 -7.6713259e+01 
-6.3798298e+02 3.8971823e+00 -1.8366143e+01 
-6.6257781e+02 -4.5034737e+02 -2.4766829e+02 
-5.1992336e+02 6.2286974e+01 -3.2183647e+01 
-5.0394781e+02 -2.6410148e+01 -6.6690869e+01 
-5.7252617e+02 -3.6646007e+01 3.2644326e+01 
-6.4942344e+02 -4.3229159e+02 -2.2006446e+02 
-5.9466678e+02 -2.8017667e+01 1.9203327e+01 
-5.4239169e+02 -5.0420152e+01 5.6890834e+01 
-6.5480139e+02 -4.4202748e+02 -2.3912754e+02 
-6.2447744e+02 -7.3186406e+00 -6.1069992e+00 
-5.0839425e+02 -2.3861641e+00 -5.7320715e+01 
-5.3265424e+02 8.2252467e+01 -2.0067494e+01 
-6.4693575e+02 -4.3313273e+02 -2.3006322e+02 
8.8146659e+03 2.7288012e+04 1.4403132e+04 
-6.1053400e+02 -1.8619358e+01 7.3149853e+00 
4.6117808e+02 -3.7938628e+04 2.0599248e+04 
-6.6682839e+02 4.0283051e+01 -5.5098669e+01 
-5.0846503e+02 -1.4282411e+02 -1.1475558e+02 
-5.5556089e+02 -4.8962613e+01 5.2019508e+01 
6.2722201e+03 2.4423881e+04 5.1121752e+03 
-5.0552505e+02 -1.1539423e+02 -1.0324282e+02 
-5.1453368e+02 2.0017859e+01 -4.8621438e+01 
-5.7878086e+02 -3.9691331e+01 3.6067154e+01 
-6.5371430e+02 2.6183667e+01 -3.9388380e+01 
-6.7041170e+02 -4.6519684e+02 -2.7376620e+02 
-6.6370985e+02 -4.5947652e+02 -2.6765167e+02 
-6.4358019e+02 1.5445979e+01 -2.9257759e+01 
-5.0433264e+02 -8.9217280e+01 -9.2616468e+01 
-5.8880846e+03 -2.0646855e+04 -4.1956363e+04 
-6.5676060e+02 -4.5284667e+02 -2.6052073e+02 
-5.9629522e+02 -3.0043498e+01 2.1963935e+01 
-6.3909886e+02 -4.2298507e+02 -2.2007641e+02 
-5.0486051e+02 -6.4291167e+01 -8.2542763e+01 
-6.3220103e+02 3.7516691e+00 -1.7565844e+01 
-5.2176776e+02 4.0799685e+01 -4.1072791e+01 
-6.4959188e+02 -4.4565076e+02 -2.5293805e+02 
-5.0703532e+02 -4.0687108e+01 -7.3078105e+01 
-6.2031890e+02 -7.7086134e+00 -5.1819804e+00 
-5.6303958e+02 -5.1406818e+01 5.4469568e+01 
-5.3682875e+02 -6.6001364e+01 8.1125018e+01 
-6.4225872e+02 -4.3785654e+02 -2.4484673e+02 
-5.8191432e+02 -4.1572480e+01 3.7872936e+01 
-6.2984766e+02 -4.1914519e+02 -2.1721819e+02 
-5.1075476e+02 -1.8473991e+01 -6.4227578e+01 
-5.3314606e+02 5.9159029e+01 -2.9424111e+01 
-6.0793930e+02 -1.9260027e+01 8.1412955e+00 
-6.3480250e+02 -4.2948525e+02 -2.3631878e+02 
8.6505537e+03 2.6427777e+04 1.4054126e+04 
-5.1148513e+02 -1.4829170e+02 -1.1818154e+02 
-5.4770372e+02 -6.3620612e+01 7.3793979e+01 
-5.1601189e+02 2.2408557e+00 -5.6003512e+01 
-5.9521066e+02 -3.0823719e+01 2.2440813e+01 
4.1579668e+02 -3.6324136e+04 1.9941908e+04 
-5.0840214e+02 -1.2280904e+02 -1.0723072e+02 
-5.6752112e+02 -5.3306655e+01 5.5092102e+01 
-6.4683524e+02 3.1132197e+01 -4.8687239e+01 
-6.2728769e+02 -4.2059256e+02 -2.2728496e+02 
-5.7165524e+03 -2.0086523e+04 -4.0583732e+04 
-6.3428130e+02 1.6569363e+01 -3.1561809e+01 
-5.0693624e+02 -9.8512650e+01 -9.7150198e+01 
6.0668007e+03 2.3358084e+04 4.6645169e+03 
-6.5003112e+02 -4.5388468e+02 -2.7110046e+02 
-6.2477246e+02 5.3749077e+00 -2.0087441e+01 
-5.0705456e+02 -7.5394116e+01 -8.7596977e+01 
-6.4349109e+02 -4.4791251e+02 -2.6491607e+02 
-5.2222538e+02 2.1486030e+01 -4.8869693e+01 
-5.8225335e+02 -4.2437363e+01 3.7779647e+01 
-6.1417657e+02 -6.7177608e+00 -7.1810204e+00 
-6.3674015e+02 -4.4110163e+02 -2.5775287e+02 
-6.1982064e+02 -4.1050791e+02 -2.1735472e+02 
-5.0868172e+02 -5.3512765e+01 -7.8622447e+01 
-5.5328257e+02 -6.4997274e+01 7.3647534e+01 
-5.3065919e+02 -8.0325919e+01 1.0250940e+02 
-6.2980575e+02 -4.3377845e+02 -2.5015743e+02 
-6.0320034e+02 -1.8518512e+01 6.2791719e+00 
-5.3234849e+02 3.8422036e+01 -3.7625689e+01 
-5.6920045e+02 -5.4081913e+01 5.4192475e+01 
-5.1171486e+02 -3.2922256e+01 -7.0225212e+01 
-6.2273956e+02 -4.2590944e+02 -2.4207261e+02 
-6.1102153e+02 -4.0665710e+02 -2.1445032e+02 
-5.9183045e+02 -3.0349435e+01 2.0527245e+01 
-5.3943695e+02 -7.7109464e+01 9.2933920e+01 
-6.1557964e+02 -4.1751273e+02 -2.3356790e+02 
8.4798905e+03 2.5570702e+04 1.3702697e+04 
-5.1614662e+02 -1.3713086e+01 -6.2412856e+01 
-5.1312227e+02 -1.5306373e+02 -1.2103141e+02 
-5.5453937e+03 -1.9530664e+04 -3.9225834e+04 
-5.8019438e+02 -4.2129872e+01 3.5593843e+01 
-5.0989645e+02 -1.2936777e+02 -1.1058632e+02 
-5.5616411e+02 -6.5856909e+01 7.1731439e+01 
3.7305090e+02 -3.4763692e+04 1.9304847e+04 
-5.0816495e+02 -1.0678754e+02 -1.0099240e+02 
-6.2761665e+02 2.2429646e+01 -4.3046405e+01 
-6.1558694e+02 7.4867456e+00 -2.4734377e+01 
-6.0838637e+02 -4.0864068e+02 -2.2457160e+02 
-5.2141312e+02 4.1691530e+00 -5.5634265e+01 
-5.0789131e+02 -8.5309640e+01 -9.1900162e+01 
-6.0664363e+02 -4.0884456e+00 -1.2118912e+01 
-5.6839330e+02 -5.3896306e+01 5.1538597e+01 
5.8664645e+03 2.2329673e+04 4.2333200e+03 
-6.3042533e+02 -4.4292714e+02 -2.6839988e+02 
-6.2404095e+02 -4.3674671e+02 -2.6216697e+02 
-5.2394288e+02 -9.3502601e+01 1.2130063e+02 
-5.9675294e+02 -1.6511256e+01 1.8230783e+00 
-5.4329496e+02 -7.7513338e+01 9.0426447e+01 
-5.0899995e+02 -6.4983346e+01 -8.3356823e+01 
-6.0125577e+02 -3.9862938e+02 -2.1470096e+02 
-6.1747842e+02 -4.2979286e+02 -2.5499000e+02 
-5.3037370e+02 1.9839639e+01 -4.4742769e+01 
-5.8659045e+02 -2.8593018e+01 1.6206244e+01 
-6.1076429e+02 -4.2237551e+02 -2.4739761e+02 
-5.1138916e+02 -4.5849885e+01 -7.5355666e+01 
-5.5654234e+02 -6.5628996e+01 6.8395429e+01 
-5.7612803e+02 -4.0652614e+01 3.1251171e+01 
-5.9287168e+02 -3.9476796e+02 -2.1174883e+02 
-6.0394665e+02 -4.1445970e+02 -2.3933244e+02 
-5.3080967e+02 -8.9524949e+01 1.0968207e+02 
-5.1505231e+02 -2.7986424e+01 -6.7900826e+01 
-5.3749652e+03 -1.8980059e+04 -3.7884795e+04 
8.3035668e+03 2.4718790e+04 1.3349926e+04 
-5.1347703e+02 -1.5717447e+02 -1.2331316e+02 
-5.1011080e+02 -1.3511651e+02 -1.1332344e+02 
-5.4473749e+02 -7.7426598e+01 8.6216507e+01 
-5.9706026e+02 -4.0605995e+02 -2.3086127e+02 
-5.6547560e+02 -5.2607557e+01 4.6981406e+01 
-5.0812421e+02 -1.1410231e+02 -1.0416357e+02 
3.3285180e+02 -3.3255547e+04 1.8686989e+04 
-6.0910128e+02 1.4154458e+01 -3.8108483e+01 
-5.1944315e+02 -1.1316467e+01 -6.1427030e+01 
-5.0747862e+02 -9.4114600e+01 -9.5480112e+01 
-5.9756487e+02 -1.0955325e+00 -1.8805552e+01 
-5.9016183e+02 -3.9722477e+02 -2.2190992e+02 
-5.8913609e+02 -1.2984617e+01 -5.2246972e+00 
-5.5471788e+02 -6.4492975e+01 6.3451735e+01 
-5.1673858e+02 -1.0562425e+02 1.3773277e+02 
-5.3311420e+02 -8.9039884e+01 1.0503400e+02 
-5.0809968e+02 -7.5194116e+01 -8.7316851e+01 
5.6709762e+03 2.1337427e+04 3.8184341e+03 
-5.7988332e+02 -2.5676964e+01 9.5954099e+00 
-6.1153314e+02 -4.3229416e+02 -2.6565442e+02 
-5.2732914e+02 3.2253235e+00 -5.0845087e+01 
-6.0529731e+02 -4.2594598e+02 -2.5939373e+02 
-5.8333813e+02 -3.8729664e+02 -2.1210322e+02 
-5.0988794e+02 -5.7371831e+01 -7.9662709e+01 
-5.7045427e+02 -3.7986415e+01 2.4764503e+01 
-5.9891252e+02 -4.1888412e+02 -2.5222097e+02 
-5.4395417e+02 -7.6288296e+01 8.0693777e+01 
-5.9240432e+02 -4.1140259e+02 -2.4464704e+02 
-5.2186880e+02 -1.0095091e+02 1.2426084e+02 
-5.6080929e+02 -5.0228659e+01 4.0490082e+01 
-5.2055906e+03 -1.8435392e+04 -3.6562533e+04 
-5.1283830e+02 -4.0714258e+01 -7.2519449e+01 
-5.7533649e+02 -3.8342744e+02 -2.0910432e+02 
8.1224168e+03 2.3873857e+04 1.2996816e+04 
-5.8581727e+02 -4.0346501e+02 -2.3661440e+02 
-5.1264859e+02 -1.6066077e+02 -1.2503939e+02 
-5.0914615e+02 -1.4010368e+02 -1.1545999e+02 
-5.3326598e+02 -8.8091201e+01 9.8758254e+01 
-5.5104358e+02 -6.2319503e+01 5.6788389e+01 
-5.0691687e+02 -1.2051872e+02 -1.0668762e+02 
-5.7918307e+02 -3.9508221e+02 -2.2818715e+02 
-5.1642210e+02 -2.5125600e+01 -6.6308156e+01 
2.9511140e+02 -3.1798095e+04 1.8087353e+04 
-5.0592096e+02 -1.0188575e+02 -9.8367325e+01 
-5.9122737e+02 6.2872026e+00 -3.3814793e+01 
-5.8015687e+02 -9.2058229e+00 -1.3688660e+01 
-5.0910264e+02 -1.1677107e+02 1.5201990e+02 
-5.4122783e+02 -7.4292671e+01 7.3708646e+01 
-5.7255519e+02 -3.8629878e+02 -2.1928879e+02 
-5.7219846e+02 -2.1349985e+01 7.0547615e-01 
-5.0608626e+02 -8.4238127e+01 -9.0539996e+01 
-5.2277494e+02 -9.9652219e+01 1.1767829e+02 
-5.2331676e+02 -1.1593620e+01 -5.6000775e+01 
-5.6352509e+02 -3.4258024e+01 1.6265668e+01 
5.4801295e+03 2.0380185e+04 3.4197013e+03 
-5.0731636e+02 -6.7598302e+01 -8.3191015e+01 
-5.9330032e+02 -4.2195835e+02 -2.6285578e+02 
-5.6601206e+02 -3.7646378e+02 -2.0955167e+02 
-5.8720551e+02 -4.1547974e+02 -2.5658725e+02 
-5.3144756e+02 -8.6126693e+01 9.1279212e+01 
-5.5475920e+02 -4.6747355e+01 3.2098945e+01 
-5.8098763e+02 -4.0834194e+02 -2.4943612e+02 
-5.0375629e+03 -1.7897254e+04 -3.5260762e+04 
-5.1265836e+02 -1.1146124e+02 1.3687377e+02 
-5.0960822e+02 -5.2024176e+01 -7.6320661e+01 
-5.7467129e+02 -4.0082356e+02 -2.4189565e+02 
-5.4585222e+02 -5.9130586e+01 4.8400506e+01 
7.9372175e+03 2.3037535e+04 1.2644286e+04 
-5.1073349e+02 -1.6356098e+02 -1.2622662e+02 
-5.5836381e+02 -3.7259184e+02 -2.0650899e+02 
-5.2177145e+02 -9.7918190e+01 1.0954832e+02 
-5.0710045e+02 -1.4437876e+02 -1.1701718e+02 
-5.6829774e+02 -3.9288698e+02 -2.3390829e+02 
-5.0464216e+02 -1.2609869e+02 -1.0859119e+02 
-5.1245061e+02 -3.7402785e+01 -7.0336752e+01 
-5.3688702e+02 -7.1322016e+01 6.5179504e+01 
-5.0331846e+02 -1.0869855e+02 -1.0059427e+02 
-5.6189591e+02 -3.8453948e+02 -2.2553550e+02 
-5.0108810e+02 -1.2701323e+02 1.6435817e+02 
2.5974294e+02 -3.0389854e+04 1.7505035e+04 
-5.7394126e+02 -1.1902630e+00 -3.0113323e+01 
-5.6331184e+02 -1.6869896e+01 -9.3079223e+00 
-5.2792242e+02 -8.3353997e+01 8.2479355e+01 
-5.0306001e+02 -9.2205322e+01 -9.3064870e+01 
-5.1230871e+02 -1.0941740e+02 1.2854901e+02 
-5.1843255e+02 -2.4777246e+01 -6.0275794e+01 
-5.5578503e+02 -2.9217284e+01 5.7678855e+00 
-5.5551644e+02 -3.7582189e+02 -2.1669872e+02 
-5.0377398e+02 -7.6634256e+01 -8.5985518e+01 
-5.4763975e+02 -4.2293116e+01 2.1947445e+01 
-5.1903197e+02 -9.5204145e+01 1.0032462e+02 
5.2937435e+03 1.9456846e+04 3.0369576e+03 
-5.7567884e+02 -4.1189502e+02 -2.5999727e+02 
-4.8711465e+03 -1.7366149e+04 -3.3981001e+04 
-5.3947519e+02 -5.4919435e+01 3.8337224e+01 
-5.4923025e+02 -3.6609024e+02 -2.0703787e+02 
-5.0321901e+02 -1.2112150e+02 1.4770687e+02 
-5.6971749e+02 -4.0532013e+02 -2.5373994e+02 
-5.0545968e+02 -6.2036228e+01 -7.9355735e+01 
-5.6365591e+02 -3.9813575e+02 -2.4662723e+02 
-5.3123599e+02 -6.7405915e+01 5.5121053e+01 
7.7486904e+03 2.2211286e+04 1.2293185e+04 
-5.0782479e+02 -1.6591406e+02 -1.2689448e+02 
-5.5751796e+02 -3.9060556e+02 -2.3913483e+02 
-5.0406782e+02 -1.4799130e+02 -1.1801885e+02 
-5.1027310e+02 -1.0696796e+02 1.1876034e+02 
-5.4190913e+02 -3.6222243e+02 -2.0395602e+02 
-5.0762312e+02 -4.8282785e+01 -7.3570357e+01 
-5.0139500e+02 -1.3090326e+02 -1.0990294e+02 
-5.2299464e+02 -7.9665586e+01 7.2301480e+01 
-5.5134185e+02 -3.8269092e+02 -2.3120531e+02 
-4.9976639e+02 -1.1462633e+02 -1.0219473e+02 
-4.9274423e+02 -1.3641276e+02 1.7492746e+02 
-5.4515408e+02 -3.7439581e+02 -2.2289765e+02 
2.2666118e+02 -2.9029444e+04 1.6939209e+04 
-5.1276638e+02 -3.6473844e+01 -6.3733542e+01 
-4.9911588e+02 -9.9181893e+01 -9.4930646e+01 
-5.0174395e+02 -1.1839532e+02 1.3781871e+02 
-5.5719617e+02 -8.2949317e+00 -2.6957115e+01 
-5.1479991e+02 -9.1729510e+01 8.9916172e+01 
-5.4698492e+02 -2.4111258e+01 -5.5962478e+00 
-5.3985525e+02 -3.6616041e+01 1.0047327e+01 
-4.9935454e+02 -8.4579077e+01 -8.8090894e+01 
-5.3900283e+02 -3.6575761e+02 -2.1413150e+02 
-5.3219271e+02 -4.9816970e+01 2.6740825e+01 
-4.7065790e+03 -1.6842507e+04 -3.2724587e+04 
-5.0671504e+02 -1.0357442e+02 1.0798566e+02 
-4.9358788e+02 -1.2999021e+02 1.5693000e+02 
-5.0048416e+02 -7.0862970e+01 -8.1674841e+01 
-5.2457484e+02 -6.2541733e+01 4.3592138e+01 
-5.3295220e+02 -3.5613979e+02 -2.0455444e+02 
5.1116582e+03 1.8566363e+04 2.6700332e+03 
-5.5862623e+02 -4.0208200e+02 -2.5707367e+02 
-5.5279091e+02 -3.9544197e+02 -2.5084561e+02 
7.5575022e+03 2.1396412e+04 1.1944282e+04 
-5.0401152e+02 -1.6775885e+02 -1.2706498e+02 
-5.1694116e+02 -7.5097226e+01 6.0774716e+01 
-5.4687547e+02 -3.8823787e+02 -2.4378743e+02 
-5.0013799e+02 -1.5099010e+02 -1.1849080e+02 
-4.9878767e+02 -1.1529464e+02 1.2655138e+02 
-5.0202778e+02 -5.7890990e+01 -7.6064575e+01 
-4.9726558e+02 -1.3499185e+02 -1.1065291e+02 
-5.2593423e+02 -3.5228424e+02 -2.0143918e+02 
-5.4090319e+02 -3.8071884e+02 -2.3635726e+02 
-5.0935542e+02 -8.7395470e+01 7.8285114e+01 
-4.8411635e+02 -1.4502506e+02 1.8389267e+02 
-4.9535486e+02 -1.1973962e+02 -1.0320328e+02 
-5.3490957e+02 -3.7284549e+02 -2.2849793e+02 
-5.0640188e+02 -4.6820645e+01 -6.6434608e+01 
-4.9434325e+02 -1.0524984e+02 -9.6176581e+01 
-4.9110610e+02 -1.2663970e+02 1.4564410e+02 
1.9578241e+02 -2.7715571e+04 1.6389108e+04 
-5.2891898e+02 -3.6461881e+02 -2.2026612e+02 
-5.0185790e+02 -9.9466345e+01 9.6155500e+01 
-5.4095119e+02 -1.5042725e+01 -2.4303144e+01 
-5.3113663e+02 -3.0951398e+01 -2.4935793e+00 
-4.9414586e+02 -9.1526395e+01 -8.9551165e+01 
-5.2437318e+02 -4.3572933e+01 1.3619091e+01 
-4.5440736e+03 -1.6326686e+04 -3.1492681e+04 
-5.2297748e+02 -3.5607306e+02 -2.1157992e+02 
-5.1715301e+02 -5.6860798e+01 3.0734492e+01 
-4.9450296e+02 -1.1128576e+02 1.1440235e+02 
-4.8379867e+02 -1.3811985e+02 1.6469800e+02 
-4.9476705e+02 -7.8609568e+01 -8.3326733e+01 
-5.1003332e+02 -6.9649295e+01 4.7963744e+01 
-5.1714294e+02 -3.4657963e+02 -2.0209472e+02 
4.9337322e+03 1.7707736e+04 2.3187523e+03 
7.3642674e+03 2.0594066e+04 1.1598279e+04 
-5.4210485e+02 -3.9249950e+02 -2.5408098e+02 
-4.9937825e+02 -1.6913350e+02 -1.2676192e+02 
-4.9574658e+02 -6.6343793e+01 -7.7872828e+01 
-5.0294982e+02 -8.2242685e+01 6.5470881e+01 
-5.3638843e+02 -3.8582262e+02 -2.4789934e+02 
-4.9539605e+02 -1.5342268e+02 -1.1846019e+02 
-4.8732972e+02 -1.2294685e+02 1.3306330e+02 
-5.3060952e+02 -3.7862331e+02 -2.4091108e+02 
-4.9233905e+02 -1.3842170e+02 -1.1087204e+02 
-4.7524586e+02 -1.5289996e+02 1.9140492e+02 
-5.1040603e+02 -3.4274535e+02 -1.9895257e+02 
-5.2479102e+02 -3.7113653e+02 -2.3355679e+02 
-4.9595888e+02 -9.4552243e+01 8.3247134e+01 
-4.9016865e+02 -1.2410569e+02 -1.0365479e+02 
-4.9941662e+02 -5.5944410e+01 -6.8436613e+01 
-5.1896602e+02 -3.6332240e+02 -2.2577973e+02 
-4.8882587e+02 -1.1048667e+02 -9.6841620e+01 
-4.8041781e+02 -1.3419880e+02 1.5216731e+02 
-4.8909359e+02 -1.0660679e+02 1.0131953e+02 
1.6702457e+02 -2.6447012e+04 1.5854028e+04 
-5.2517041e+02 -2.1448543e+01 -2.2111558e+01 
-5.1315705e+02 -3.5517919e+02 -2.1763438e+02 
-5.1573224e+02 -3.7409985e+01 5.4350982e-02 
-4.8822994e+02 -9.7564011e+01 -9.0409380e+01 
-4.3838203e+03 -1.5818981e+04 -3.0286286e+04 
-5.0930700e+02 -5.0112099e+01 1.6550516e+01 
-5.0249303e+02 -6.3452687e+01 3.4007462e+01 
-4.7388172e+02 -1.4555769e+02 1.7115194e+02 
-4.8240067e+02 -1.1838150e+02 1.1970063e+02 
-5.0740835e+02 -3.4673846e+02 -2.0903758e+02 
-4.8838776e+02 -8.5373950e+01 -8.4358509e+01 
-4.9582824e+02 -7.6273576e+01 5.1541149e+01 
7.1695506e+03 1.9805259e+04 1.1255809e+04 
-5.0177207e+02 -3.3737988e+02 -1.9965261e+02 
-4.8885552e+02 -7.3748950e+01 -7.9046194e+01 
-4.9400495e+02 -1.7007507e+02 -1.2601033e+02 
-4.8992222e+02 -1.5533477e+02 -1.1795503e+02 
-4.7591188e+02 -1.2996831e+02 1.3842419e+02 
4.7598394e+03 1.6880010e+04 1.9829333e+03 
-4.8924559e+02 -8.8876522e+01 6.9307093e+01 
-5.2608132e+02 -3.8312982e+02 -2.5101633e+02 
-5.2047702e+02 -3.7644173e+02 -2.4489725e+02 
-4.8669553e+02 -1.4124748e+02 -1.1059168e+02 
-4.6617035e+02 -1.6008253e+02 1.9760252e+02 
-5.1482563e+02 -3.6926955e+02 -2.3799360e+02 
-4.8428722e+02 -1.2778829e+02 -1.0358409e+02 
-4.9529572e+02 -3.3357628e+02 -1.9649055e+02 
-4.8279518e+02 -1.0117230e+02 8.7291874e+01 
-4.9188222e+02 -6.3961962e+01 -6.9794150e+01 
-5.0914984e+02 -3.6183437e+02 -2.3072830e+02 
-4.6969916e+02 -1.4111612e+02 1.5751717e+02 
-4.8264196e+02 -1.1496529e+02 -9.6964087e+01 
-5.0348061e+02 -3.5409603e+02 -2.2304523e+02 
-4.7650399e+02 -1.1318881e+02 1.0551781e+02 
1.4030725e+02 -2.5222607e+04 1.5333313e+04 
-4.8168308e+02 -1.0277390e+02 -9.0707381e+01 
-4.2259879e+03 -1.5319629e+04 -2.9106253e+04 
-5.0982220e+02 -2.7526295e+01 -2.0345144e+01 
-5.0074110e+02 -4.3505030e+01 2.0969623e+00 
-4.9783894e+02 -3.4605039e+02 -2.1499679e+02 
-4.9462851e+02 -5.6255403e+01 1.8902223e+01 
-4.6386427e+02 -1.5234644e+02 1.7642016e+02 
-4.8141992e+02 -9.1246996e+01 -8.4815455e+01 
-4.7041217e+02 -1.2490057e+02 1.2399375e+02 
-4.8818815e+02 -6.9617933e+01 3.6630497e+01 
-4.9226743e+02 -3.3772663e+02 -2.0649877e+02 
-4.8193950e+02 -8.2442832e+01 5.4404009e+01 
-4.8142479e+02 -8.0205939e+01 -7.9633321e+01 
6.9738691e+03 1.9030877e+04 1.0917438e+04 
-4.8796683e+02 -1.7061918e+02 -1.2483599e+02 
-4.8379184e+02 -1.5677004e+02 -1.1700384e+02 
-4.6454510e+02 -1.3639838e+02 1.4274962e+02 
-4.8681298e+02 -3.2851310e+02 -1.9722248e+02 
-4.7581360e+02 -9.5029454e+01 7.2370571e+01 
-4.5692383e+02 -1.6661373e+02 2.0261191e+02 
-4.8041001e+02 -1.4352103e+02 -1.0984327e+02 
4.5898676e+03 1.6082272e+04 1.6623889e+03 
-5.1052597e+02 -3.7395718e+02 -2.4787775e+02 
-5.0502737e+02 -3.6728106e+02 -2.4183647e+02 
-4.7778475e+02 -1.3084746e+02 -1.0302558e+02 
-4.8386464e+02 -7.0980685e+01 -7.0558773e+01 
-4.6985517e+02 -1.0728831e+02 9.0512762e+01 
-4.9949509e+02 -3.6015629e+02 -2.3503134e+02 
-4.8057807e+02 -3.2474969e+02 -1.9404764e+02 
-4.5896796e+02 -1.4743093e+02 1.6181033e+02 
-4.7586431e+02 -1.1875389e+02 -9.6581436e+01 
-4.9395174e+02 -3.5279041e+02 -2.2786758e+02 
-4.0707254e+03 -1.4828822e+04 -2.7953295e+04 
-4.6408605e+02 -1.1924651e+02 1.0884862e+02 
-4.7457606e+02 -1.0723232e+02 -9.0485622e+01 
-4.8842642e+02 -3.4514314e+02 -2.2028977e+02 
1.1555165e+02 -2.4041246e+04 1.4826358e+04 
-4.9487861e+02 -3.3288932e+01 -1.8968969e+01 
-4.8613612e+02 -4.9253021e+01 3.6795454e+00 
-4.8293879e+02 -3.3720821e+02 -2.1234837e+02 
-4.5377073e+02 -1.5852480e+02 1.8061932e+02 
-4.7393161e+02 -9.6312765e+01 -8.4740934e+01 
-4.8031273e+02 -6.2022661e+01 2.0729096e+01 
-4.5854065e+02 -1.3087805e+02 1.2738359e+02 
-4.7421647e+02 -7.5379342e+01 3.8667271e+01 
-4.7753005e+02 -3.2901271e+02 -2.0395834e+02 
-4.7351910e+02 -8.5806327e+01 -7.9680390e+01 
-4.6834909e+02 -8.8182469e+01 5.6623798e+01 
6.7776955e+03 1.8271684e+04 1.0583672e+04 
-4.8133441e+02 -1.7079978e+02 -1.2326510e+02 
-4.7707539e+02 -1.5776988e+02 -1.1563520e+02 
-4.5323890e+02 -1.4227258e+02 1.4614390e+02 
-4.4753697e+02 -1.7253089e+02 2.0654853e+02 
-4.7224226e+02 -3.1995397e+02 -1.9479907e+02 
-4.7355251e+02 -1.4529117e+02 -1.0865799e+02 
-4.6264040e+02 -1.0072907e+02 7.4739524e+01 
-4.7542448e+02 -7.7099016e+01 -7.0779038e+01 
-4.7073031e+02 -1.3333940e+02 -1.0201308e+02 
4.4237160e+03 1.5313648e+04 1.3569259e+03 
-4.9541232e+02 -3.6496745e+02 -2.4466405e+02 
-4.9001341e+02 -3.5832421e+02 -2.3871490e+02 
-4.5713049e+02 -1.1292962e+02 9.2993625e+01 
-4.4823994e+02 -1.5317874e+02 1.6515241e+02 
-4.6623087e+02 -3.1624007e+02 -1.9161856e+02 
-4.6856050e+02 -1.2191597e+02 -9.5730073e+01 
-4.8459240e+02 -3.5126527e+02 -2.3202148e+02 
-4.7917197e+02 -3.4398480e+02 -2.2497118e+02 
-3.9181634e+03 -1.4346702e+04 -2.6827998e+04 
-4.6697436e+02 -1.1100988e+02 -8.9783054e+01 
-4.5183676e+02 -1.2481056e+02 1.1140031e+02 
-4.7377956e+02 -3.3644263e+02 -2.1750942e+02 
9.2680614e+01 -2.2901864e+04 1.4332600e+04 
-4.8031488e+02 -3.8748466e+01 -1.7950115e+01 
-4.4362292e+02 -1.6412785e+02 1.8385535e+02 
-4.7189335e+02 -5.4669041e+01 4.8438196e+00 
-4.6598565e+02 -1.0064875e+02 -8.4176335e+01 
-4.6633753e+02 -6.7431838e+01 2.2081075e+01 
-4.6843374e+02 -3.2863057e+02 -2.0968482e+02 
-4.4678873e+02 -1.3634549e+02 1.2996191e+02 
-4.6055851e+02 -8.0757486e+01 4.0175319e+01 
-4.6519794e+02 -9.0634154e+01 -7.9231121e+01 
-4.6317442e+02 -3.2057387e+02 -2.0141166e+02 
-4.5504093e+02 -9.3515350e+01 5.8264878e+01 
6.5814607e+03 1.7528337e+04 1.0254958e+04 
-4.7417356e+02 -1.7064903e+02 -1.2132395e+02 
-4.6983859e+02 -1.5837327e+02 -1.1387759e+02 
-4.4200156e+02 -1.4762297e+02 1.4870115e+02 
-4.3803743e+02 -1.7786807e+02 2.0951761e+02 
-4.6618819e+02 -1.4660365e+02 -1.0706659e+02 
-4.4971389e+02 -1.0600019e+02 7.6484271e+01 
-4.6661726e+02 -8.2406929e+01 -7.0500586e+01 
-4.5803919e+02 -3.1167908e+02 -1.9237750e+02 
-4.6318800e+02 -1.3531651e+02 -1.0057959e+02 
4.2612944e+03 1.4573295e+04 1.0663449e+03 
-4.8071672e+02 -3.5614798e+02 -2.4137473e+02 
-4.4461346e+02 -1.1812263e+02 9.4809827e+01 
-4.3752907e+02 -1.5839171e+02 1.6763895e+02 
-4.6079310e+02 -1.2451044e+02 -9.4445214e+01 
-4.7541185e+02 -3.4955646e+02 -2.3553117e+02 
-4.5223450e+02 -3.0802360e+02 -1.8919820e+02 
-3.7684158e+03 -1.3873377e+04 -2.5730830e+04 
-4.7009484e+02 -3.4257995e+02 -2.2896190e+02 
-4.5893849e+02 -1.1417179e+02 -8.8637045e+01 
-4.6478850e+02 -3.3539954e+02 -2.2203635e+02 
-4.3975326e+02 -1.2990859e+02 1.1325236e+02 
7.1618517e+01 -2.1803432e+04 1.3851515e+04 
-4.5951883e+02 -3.2797527e+02 -2.1470089e+02 
-4.3344037e+02 -1.6918750e+02 1.8622440e+02 
-4.5763988e+02 -1.0432617e+02 -8.3161055e+01 
-4.6610901e+02 -4.3916002e+01 -1.7257492e+01 
-4.5799149e+02 -5.9766873e+01 5.6283725e+00 
-4.3515854e+02 -1.4133136e+02 1.3181137e+02 
-4.5268325e+02 -7.2499220e+01 2.3003789e+01 
-4.5430345e+02 -3.2029724e+02 -2.0700237e+02 
-4.4719694e+02 -8.5770933e+01 4.1206843e+01 
-4.5651592e+02 -9.4766320e+01 -7.8326823e+01 
6.3855566e+03 1.6801392e+04 9.9316867e+03 
-4.6654564e+02 -1.7019716e+02 -1.1903868e+02 
-4.4918115e+02 -3.1238907e+02 -1.9885458e+02 
-4.4200065e+02 -9.8462062e+01 5.9385398e+01 
-4.2845010e+02 -1.8265642e+02 2.1161494e+02 
-4.6214259e+02 -1.5861668e+02 -1.1175909e+02 
-4.3084033e+02 -1.5247851e+02 1.5050637e+02 
-4.5837754e+02 -1.4750109e+02 -1.0509915e+02 
-4.5749380e+02 -8.6986434e+01 -6.9766246e+01 
-4.3702322e+02 -1.1086513e+02 7.7668213e+01 
-4.5521723e+02 -1.3682741e+02 -9.8757146e+01 
-4.4418538e+02 -3.0366671e+02 -1.8995323e+02 
-4.5261991e+02 -1.2659170e+02 -9.2760807e+01 
-4.2684772e+02 -1.6309897e+02 1.6935643e+02 
-4.3229715e+02 -1.2289109e+02 9.6029268e+01 
-3.6215808e+03 -1.3408921e+04 -2.4662150e+04 
4.1025213e+03 1.3860406e+04 7.9044009e+02 
-4.6641797e+02 -3.4748744e+02 -2.3800984e+02 
-4.6120186e+02 -3.4096452e+02 -2.3228451e+02 
-4.3857153e+02 -3.0007802e+02 -1.8678168e+02 
-4.5052417e+02 -1.1677802e+02 -8.7083344e+01 
-4.5598209e+02 -3.3408540e+02 -2.2585109e+02 
-4.2783286e+02 -1.3456546e+02 1.1447637e+02 
-4.5078164e+02 -3.2701827e+02 -2.1906094e+02 
-4.2324053e+02 -1.7373274e+02 1.8781364e+02 
-4.4894745e+02 -1.0741026e+02 -8.1732514e+01 
5.2291278e+01 -2.0744953e+04 1.3382618e+04 
-4.5224138e+02 -4.8801767e+01 -1.6861700e+01 
-4.4562528e+02 -3.1972351e+02 -2.1186146e+02 
-4.4441166e+02 -6.4559092e+01 6.0690119e+00 
-4.2365185e+02 -1.4586136e+02 1.3300656e+02 
-4.3933241e+02 -7.7239565e+01 2.3539091e+01 
-4.4752309e+02 -9.8272988e+01 -7.7006461e+01 
-4.4052979e+02 -3.1218967e+02 -2.0429780e+02 
-4.3411635e+02 -9.0436447e+01 4.1809362e+01 
-4.1879737e+02 -1.8692441e+02 2.1292762e+02 
6.1903389e+03 1.6091311e+04 9.6141950e+03 
-4.5850768e+02 -1.6947249e+02 -1.1643515e+02 
-4.2921546e+02 -1.0304115e+02 6.0038057e+01 
-4.5404412e+02 -1.5853413e+02 -1.0930729e+02 
-4.1976158e+02 -1.5686541e+02 1.5163631e+02 
-4.3553296e+02 -3.0443890e+02 -1.9628336e+02 
-4.4810053e+02 -9.0912068e+01 -6.8616165e+01 
-4.5017658e+02 -1.4802304e+02 -1.0278500e+02 
-4.2455865e+02 -1.1534398e+02 7.8348661e+01 
-4.4687288e+02 -1.3791702e+02 -9.6576773e+01 
-4.3066443e+02 -2.9589671e+02 -1.8752208e+02 
-4.4409427e+02 -1.2820984e+02 -9.0709471e+01 
-4.1620690e+02 -1.6732696e+02 1.7038304e+02 
-3.4777422e+03 -1.2953378e+04 -2.3622217e+04 
-4.2017533e+02 -1.2725640e+02 9.6713249e+01 
3.9473234e+03 1.3174200e+04 5.2899947e+02 
-4.4178271e+02 -1.1888354e+02 -8.5156071e+01 
-4.5249704e+02 -3.3897564e+02 -2.3456995e+02 
-4.2522649e+02 -2.9238252e+02 -1.8436442e+02 
-4.4736475e+02 -3.3253644e+02 -2.2897469e+02 
-4.1607309e+02 -1.3880361e+02 1.1513701e+02 
-4.4223593e+02 -3.2576810e+02 -2.2268810e+02 
-4.1303904e+02 -1.7778997e+02 1.8870207e+02 
-4.3995715e+02 -1.0996059e+02 -7.9926197e+01 
-4.3713377e+02 -3.1882613e+02 -2.1604334e+02 
3.4626292e+01 -1.9725458e+04 1.2925457e+04 
-4.3869451e+02 -5.3415142e+01 -1.6734904e+01 
-4.3113703e+02 -6.9057155e+01 6.1990548e+00 
-4.3208192e+02 -3.1167132e+02 -2.0898891e+02 
-4.1227018e+02 -1.4995870e+02 1.3361479e+02 
-4.3826526e+02 -1.0121799e+02 -7.5306749e+01 
-4.2626949e+02 -8.1666244e+01 2.3725487e+01 
-4.2709652e+02 -3.0429081e+02 -2.0156832e+02 
-4.2130303e+02 -9.4769162e+01 4.2026279e+01 
-4.0909941e+02 -1.9069812e+02 2.1353478e+02 
5.9961296e+03 1.5398474e+04 9.3027716e+03 
-4.5011254e+02 -1.6850136e+02 -1.1353878e+02 
-4.4559569e+02 -1.5815714e+02 -1.0654915e+02 
-4.0877093e+02 -1.6080740e+02 1.5216032e+02 
-4.1667396e+02 -1.0726934e+02 6.0270754e+01 
-4.3847982e+02 -9.4251387e+01 -6.7087953e+01 
-4.4163709e+02 -1.4820605e+02 -1.0015263e+02 
-4.2221440e+02 -2.9670544e+02 -1.9369472e+02 
-4.3820561e+02 -1.3862668e+02 -9.4068396e+01 
-4.1231153e+02 -1.1945485e+02 7.8577545e+01 
-4.1746170e+02 -2.8835035e+02 -1.8508023e+02 
-4.3526526e+02 -1.2941077e+02 -8.8322487e+01 
-4.0561644e+02 -1.7109970e+02 1.7078957e+02 
-3.3369708e+03 -1.2506770e+04 -2.2611200e+04 
-4.0824238e+02 -1.3123784e+02 9.6917225e+01 
-4.3276121e+02 -1.2053861e+02 -8.2887745e+01 
3.7956342e+03 1.2513925e+04 2.8180427e+02 
-4.1218555e+02 -2.8491768e+02 -1.8194210e+02 
-4.3893678e+02 -3.3060342e+02 -2.3105605e+02 
-4.0447169e+02 -1.4264329e+02 1.1529269e+02 
-4.3388370e+02 -3.2426138e+02 -2.2560195e+02 
-4.0284993e+02 -1.8138324e+02 1.8896127e+02 
-4.3071370e+02 -1.1203142e+02 -7.7775716e+01 
-4.2883997e+02 -3.1761577e+02 -2.1947247e+02 
-4.2382903e+02 -3.1080954e+02 -2.1298243e+02 
1.8552389e+01 -1.8743999e+04 1.2479612e+04 
-4.2545276e+02 -5.7764699e+01 -1.6850743e+01 
-4.0101482e+02 -1.5364437e+02 1.3369693e+02 
-4.2878432e+02 -1.0365923e+02 -7.3262258e+01 
-4.1815261e+02 -7.3271474e+01 6.0495690e+00 
-4.1887354e+02 -3.0380400e+02 -2.0608152e+02 
-4.1348067e+02 -8.5791354e+01 2.3598504e+01 
-3.9937438e+02 -1.9400141e+02 2.1350821e+02 
-4.0874479e+02 -9.8782744e+01 4.1897346e+01 
-4.1398909e+02 -2.9658498e+02 -1.9881162e+02 
5.8032198e+03 1.4723185e+04 8.9976578e+03 
-4.4140917e+02 -1.6730818e+02 -1.1037444e+02 
-4.2867033e+02 -9.7065463e+01 -6.5216833e+01 
-4.3684588e+02 -1.5751481e+02 -1.0351090e+02 
-3.9787341e+02 -1.6432600e+02 1.5214113e+02 
-4.0436599e+02 -1.1116172e+02 6.0127140e+01 
-4.3280690e+02 -1.4808373e+02 -9.7229618e+01 
-4.0921162e+02 -2.8917212e+02 -1.9108576e+02 
-4.2926208e+02 -1.3899432e+02 -9.1260824e+01 
-4.0027412e+02 -1.2321408e+02 7.8402039e+01 
-3.1993251e+03 -1.2069096e+04 -2.1629184e+04 
-4.2617805e+02 -1.3023649e+02 -8.5629792e+01 
-3.9508513e+02 -1.7443899e+02 1.7064004e+02 
-4.0456407e+02 -2.8101027e+02 -1.8262423e+02 
-3.9649330e+02 -1.3485282e+02 9.6691459e+01 
-4.2350293e+02 -1.2178898e+02 -8.0309313e+01 
-3.9943640e+02 -2.7766538e+02 -1.7951075e+02 
3.6473937e+03 1.1878852e+04 4.8629087e+01 
-3.9302665e+02 -1.4610280e+02 1.1499633e+02 
-3.9268580e+02 -1.8453446e+02 1.8865608e+02 
-4.2572172e+02 -3.2236251e+02 -2.2746952e+02 
-4.2125805e+02 -1.1367199e+02 -7.5312889e+01 
-4.2074356e+02 -3.1612958e+02 -2.2216694e+02 
-4.1577948e+02 -3.0961724e+02 -2.1620416e+02 
-4.1085317e+02 -3.0295612e+02 -2.0987753e+02 
3.9997916e+00 -1.7799648e+04 1.2044693e+04 
-4.1911853e+02 -1.0564911e+02 -7.0905534e+01 
-3.8988695e+02 -1.5693737e+02 1.3330803e+02 
-4.1250214e+02 -6.1858238e+01 -1.7184240e+01 
-4.0544503e+02 -7.7211500e+01 5.6495792e+00 
-4.0598644e+02 -2.9610808e+02 -2.0313798e+02 
-4.0095366e+02 -8.9625837e+01 2.3191004e+01 
-3.8963867e+02 -1.9685615e+02 2.1291301e+02 
5.6118721e+03 1.4065676e+04 8.6990509e+03 
-3.9643079e+02 -1.0248953e+02 4.1459069e+01 
-4.3244276e+02 -1.6591548e+02 -1.0696644e+02 
-4.1870728e+02 -9.9409348e+01 -6.3035800e+01 
-4.2783947e+02 -1.5663391e+02 -1.0021806e+02 
-4.0119439e+02 -2.8905774e+02 -1.9602582e+02 
-3.8707350e+02 -1.6744072e+02 1.5163550e+02 
-4.2373003e+02 -1.4768691e+02 -9.4042598e+01 
-3.9228255e+02 -1.1473187e+02 5.9647098e+01 
-4.2008523e+02 -1.3905459e+02 -8.8181747e+01 
-3.9651219e+02 -2.8182364e+02 -1.8845401e+02 
-3.0648526e+03 -1.1640341e+04 -2.0676177e+04 
-3.8843955e+02 -1.2663641e+02 7.7865083e+01 
-4.1687409e+02 -1.3072522e+02 -8.2660012e+01 
-3.8462087e+02 -1.7736471e+02 1.6999242e+02 
-3.9195980e+02 -2.7386033e+02 -1.8015101e+02 
-3.8492368e+02 -1.3811706e+02 9.6081599e+01 
-4.1404751e+02 -1.2267622e+02 -7.7450216e+01 
-3.8255803e+02 -1.8726364e+02 1.8784519e+02 
-3.8173619e+02 -1.4919868e+02 1.1429589e+02 
-4.1162767e+02 -1.1492688e+02 -7.2567825e+01 
-3.8696801e+02 -2.7060873e+02 -1.7706676e+02 
3.5025473e+03 1.1268276e+04 -1.7075830e+02 
-4.1283792e+02 -3.1424548e+02 -2.2381207e+02 
-4.0793064e+02 -3.0813216e+02 -2.1867070e+02 
-4.0304115e+02 -3.0176237e+02 -2.1288355e+02 
-4.0930283e+02 -1.0723489e+02 -6.8267222e+01 
-3.7888764e+02 -1.5985492e+02 1.3249799e+02 
-9.0999257e+00 -1.6891495e+04 1.1620337e+04 
-3.9983010e+02 -6.5702831e+01 -1.7711719e+01 
-3.9819334e+02 -2.9525457e+02 -2.0672838e+02 
-3.9300234e+02 -8.0885783e+01 5.0262470e+00 
-3.7990705e+02 -1.9928238e+02 2.1180817e+02 
-3.8867748e+02 -9.3179573e+01 2.2533450e+01 
-3.9340828e+02 -2.8857123e+02 -2.0015740e+02 
5.4223229e+03 1.3426118e+04 8.4071070e+03 
-4.0862279e+02 -1.0133255e+02 -6.0575778e+01 
-4.2325505e+02 -1.6434395e+02 -1.0333844e+02 
-3.8435139e+02 -1.0590064e+02 4.0745051e+01 
-4.1861779e+02 -1.5553897e+02 -9.6695338e+01 
-3.7637525e+02 -1.7016929e+02 1.5069480e+02 
-3.8870067e+02 -2.8169582e+02 -1.9320941e+02 
-4.1444705e+02 -1.4704374e+02 -9.0617280e+01 
-3.8041563e+02 -1.1799209e+02 5.8867150e+01 
-4.1071454e+02 -1.3883904e+02 -8.4857748e+01 
-2.9335908e+03 -1.1220474e+04 -1.9752117e+04 
-3.8410494e+02 -2.7464584e+02 -1.8579739e+02 
-3.7680174e+02 -1.2973513e+02 7.7005854e+01 
-4.0739145e+02 -1.3091170e+02 -7.9440497e+01 
-3.7423080e+02 -1.7989492e+02 1.6889918e+02 
-4.0443127e+02 -1.2323795e+02 -7.4338445e+01 
-3.7352958e+02 -1.4104477e+02 9.5129175e+01 
-3.7963837e+02 -2.6688559e+02 -1.7765788e+02 
-3.7247685e+02 -1.8958906e+02 1.8658177e+02 
-4.0185682e+02 -1.1583632e+02 -6.9569022e+01 
-3.7059879e+02 -1.5194593e+02 1.1323493e+02 
-3.7477057e+02 -2.6373204e+02 -1.7460689e+02 
3.3610456e+03 1.0681512e+04 -3.7659700e+02 
-4.0027274e+02 -3.0624562e+02 -2.2008573e+02 
-3.9543260e+02 -3.0026109e+02 -2.1511460e+02 
-3.9936910e+02 -1.0845909e+02 -6.5376190e+01 
-3.9061298e+02 -2.9404193e+02 -2.0951137e+02 
-3.6801792e+02 -1.6241265e+02 1.3131205e+02 
-2.0813878e+01 -1.6018645e+04 1.1206209e+04 
-3.8742543e+02 -6.9304860e+01 -1.8410729e+01 
-3.7019291e+02 -2.0129850e+02 2.1024713e+02 
-3.8583796e+02 -2.8769455e+02 -2.0353508e+02 
-3.8081390e+02 -8.4302049e+01 4.2050294e+00 
-3.9844610e+02 -1.0287946e+02 -5.7865781e+01 
-3.7664239e+02 -9.6461477e+01 2.1654137e+01 
5.2347847e+03 1.2804623e+04 8.1219439e+03 
-3.8112795e+02 -2.8118209e+02 -1.9713931e+02 
-4.1388448e+02 -1.6261254e+02 -9.9513474e+01 
-4.0921884e+02 -1.5425235e+02 -9.2966688e+01 
-3.6578237e+02 -1.7252786e+02 1.4936563e+02 
-3.7249803e+02 -1.0902612e+02 3.9786296e+01 
-4.0499524e+02 -1.4617982e+02 -8.6978444e+01 
-3.7649734e+02 -2.7448695e+02 -1.9036131e+02 
-3.6875814e+02 -1.2095345e+02 5.7820814e+01 
-4.0118623e+02 -1.3837630e+02 -8.1314335e+01 
-2.8055678e+03 -1.0809456e+04 -1.8856878e+04 
-3.6535532e+02 -1.3252228e+02 7.5860164e+01 
-3.7197985e+02 -2.6762564e+02 -1.8311419e+02 
-3.9776501e+02 -1.3082733e+02 -7.5997371e+01 
-3.6392138e+02 -1.8204616e+02 1.6740787e+02 
-3.9468746e+02 -1.2350813e+02 -7.1000625e+01 
-3.6230758e+02 -1.4364882e+02 9.3872039e+01 
-3.6759035e+02 -2.6007217e+02 -1.7514254e+02 
-3.6245155e+02 -1.9152747e+02 1.8491395e+02 
-3.9197681e+02 -1.1643651e+02 -6.6343466e+01 
-3.5961315e+02 -1.5435813e+02 1.1185306e+02 
-3.6283529e+02 -2.5702071e+02 -1.7212829e+02 
-3.8934647e+02 -1.0935986e+02 -6.2259660e+01 
3.2228437e+03 1.0117897e+04 -5.6913301e+02 
-3.8801475e+02 -2.9835689e+02 -2.1629282e+02 
-3.8323826e+02 -2.9250910e+02 -2.1150034e+02 
-3.5727876e+02 -1.6462477e+02 1.2979128e+02 
-3.6050836e+02 -2.0292145e+02 2.0827830e+02 
-3.7848411e+02 -2.8644748e+02 -2.0608870e+02 
-3.1207902e+01 -1.5180212e+04 1.0801998e+04 
-3.7527807e+02 -7.2670058e+01 -1.9259973e+01 
-3.6887020e+02 -8.7467255e+01 3.2098210e+00 
-3.7377657e+02 -2.8026660e+02 -2.0029812e+02 
-3.8820388e+02 -1.0408979e+02 -5.4933059e+01 
-3.6483971e+02 -9.9479580e+01 2.0579405e+01 
5.0494483e+03 1.2201253e+04 7.8436433e+03 
-4.0436646e+02 -1.6073849e+02 -9.5513910e+01 
-3.9967760e+02 -1.5279440e+02 -8.9055271e+01 
-3.5529824e+02 -1.7453114e+02 1.4769021e+02 
-3.6913544e+02 -2.7393027e+02 -1.9408356e+02 
-3.6086311e+02 -1.1187503e+02 3.8611469e+01 
-3.9540886e+02 -1.4511839e+02 -8.3149960e+01 
-2.6808034e+03 -1.0407237e+04 -1.7990276e+04 
-3.5730381e+02 -1.2362595e+02 5.6538921e+01 
-3.6457487e+02 -2.6741986e+02 -1.8748080e+02 
-3.9153357e+02 -1.3769228e+02 -7.7575980e+01 
-3.8802676e+02 -1.3050048e+02 -7.2355594e+01 
-3.5369849e+02 -1.8383351e+02 1.6556156e+02 
-3.5409557e+02 -1.3500872e+02 7.4460816e+01 
-3.6012793e+02 -2.6075095e+02 -1.8040312e+02 
-3.8484650e+02 -1.2351730e+02 -6.7462085e+01 
-3.5125470e+02 -1.4594086e+02 9.2344750e+01 
-3.5580730e+02 -2.5340725e+02 -1.7260308e+02 
-3.5249058e+02 -1.9309421e+02 1.8288535e+02 
-3.8201629e+02 -1.1675995e+02 -6.2916731e+01 
-3.4877818e+02 -1.5644764e+02 1.1018637e+02 
-3.5115436e+02 -2.5046123e+02 -1.6962852e+02 
-3.7926150e+02 -1.0997134e+02 -5.8943329e+01 
3.0879005e+03 9.5767833e+03 -7.4861927e+02 
-3.7605359e+02 -2.9057382e+02 -2.1243591e+02 
-3.4667113e+02 -1.6650423e+02 1.2797304e+02 
-3.5086440e+02 -2.0416682e+02 2.0594548e+02 
-3.7133750e+02 -2.8486957e+02 -2.0782990e+02 
-4.0346595e+01 -1.4375325e+04 1.0407416e+04 
-3.6664475e+02 -2.7897136e+02 -2.0261692e+02 
-3.7792043e+02 -1.0499896e+02 -5.1803252e+01 
-3.6337902e+02 -7.5803556e+01 -2.0239227e+01 
-3.5716276e+02 -9.0387657e+01 2.0630829e+00 
4.8664844e+03 1.1616021e+04 7.5722536e+03 
-3.6199972e+02 -2.7296208e+02 -1.9701828e+02 
-3.9473355e+02 -1.5873749e+02 -9.1361481e+01 
-3.5326174e+02 -1.0224111e+02 1.9333813e+01 
-3.9002622e+02 -1.5118353e+02 -8.4983496e+01 
-3.4492599e+02 -1.7619257e+02 1.4570689e+02 
-3.8571936e+02 -1.4388042e+02 -7.9154822e+01 
-3.4943991e+02 -1.1445553e+02 3.7247125e+01 
-3.5742171e+02 -2.6680620e+02 -1.9099038e+02 
-2.5593097e+03 -1.0013761e+04 -1.7152073e+04 
-3.8178706e+02 -1.3681031e+02 -7.3666157e+01 
-3.4604710e+02 -1.2601863e+02 5.5049880e+01 
-3.5292468e+02 -2.6048417e+02 -1.8456752e+02 
-3.7820599e+02 -1.2995662e+02 -6.8539018e+01 
-3.4356751e+02 -1.8527081e+02 1.6339933e+02 
-3.4301833e+02 -1.3720430e+02 7.2837911e+01 
-3.4854110e+02 -2.5401062e+02 -1.7766323e+02 
-3.7493625e+02 -1.2329285e+02 -6.3746944e+01 
-3.4036834e+02 -1.4793148e+02 9.0578915e+01 
-3.4260160e+02 -1.9430342e+02 1.8053546e+02 
-3.4428168e+02 -2.4687897e+02 -1.7003799e+02 
-3.7200140e+02 -1.1683569e+02 -5.9313081e+01 
-3.3809303e+02 -1.5822570e+02 1.0826776e+02 
-3.6913844e+02 -1.1032397e+02 -5.5451489e+01 
-3.3972081e+02 -2.4404104e+02 -1.6710553e+02 
-3.4127103e+02 -2.0504903e+02 2.0328837e+02 
-3.3619602e+02 -1.6806286e+02 1.2589131e+02 
2.9561790e+03 9.0575416e+03 -9.1531559e+02 
-3.6437986e+02 -2.8289152e+02 -2.0851779e+02 
-3.6761792e+02 -1.0563847e+02 -4.8500522e+01 
-3.5972117e+02 -2.7733654e+02 -2.0410550e+02 
-4.8293340e+01 -1.3603120e+04 1.0022197e+04 
-3.5172025e+02 -7.8709923e+01 -2.1329280e+01 
-3.5508602e+02 -2.7160660e+02 -1.9909771e+02 
-3.4568404e+02 -9.3068861e+01 7.8595913e-01 
4.6860459e+03 1.1048898e+04 7.3077926e+03 
-3.8501570e+02 -1.5662371e+02 -8.7077285e+01 
-3.8029423e+02 -1.4943635e+02 -8.0773029e+01 
-3.3466856e+02 -1.7752446e+02 1.4345052e+02 
-3.4190164e+02 -1.0475257e+02 1.7940304e+01 
-3.5049889e+02 -2.6577306e+02 -1.9369669e+02 
-3.7595560e+02 -1.4248479e+02 -7.5015179e+01 
-2.4410920e+03 -9.6289687e+03 -1.6341981e+04 
-3.3822249e+02 -1.1677498e+02 3.5717917e+01 
-3.4597865e+02 -2.5980112e+02 -1.8786032e+02 
-3.7197466e+02 -1.3575135e+02 -6.9607401e+01 
-3.3498317e+02 -1.2813966e+02 5.3379928e+01 
-3.4153909e+02 -2.5367030e+02 -1.8162146e+02 
-3.6832954e+02 -1.2921856e+02 -6.4570456e+01 
-3.3353339e+02 -1.8637080e+02 1.6095662e+02 
-3.3212002e+02 -1.3911795e+02 7.1019125e+01 
-3.6498219e+02 -1.2285927e+02 -5.9878187e+01 
-3.3721212e+02 -2.4739435e+02 -1.7489395e+02 
-3.2964633e+02 -1.4963030e+02 8.8603490e+01 
-3.3279165e+02 -1.9516814e+02 1.7790011e+02 
-3.6195606e+02 -1.1668960e+02 -5.5555561e+01 
-3.3300673e+02 -2.4047634e+02 -1.6744611e+02 
-3.2755703e+02 -1.5970258e+02 1.0612729e+02 
-3.5899945e+02 -1.1044480e+02 -5.1807142e+01 
-3.2852847e+02 -2.3774856e+02 -1.6455765e+02 
-3.3173736e+02 -2.0558144e+02 2.0034289e+02 
-3.2585443e+02 -1.6931148e+02 1.2357707e+02 
-3.5731660e+02 -1.0603624e+02 -4.5047686e+01 
2.8276450e+03 8.5595576e+03 -1.0694886e+03 
-3.5298503e+02 -2.7530559e+02 -2.0454148e+02 
-3.4838095e+02 -2.6990459e+02 -2.0032965e+02 
-5.5110336e+01 -1.2862742e+04 9.6460961e+03 
-3.4029460e+02 -8.1393209e+01 -2.2511861e+01 
4.5082693e+03 1.0499819e+04 7.0502492e+03 
-3.7524041e+02 -1.5440989e+02 -8.2681801e+01 
-3.3442736e+02 -9.5515885e+01 -6.0161610e-01 
-3.4379990e+02 -2.6434683e+02 -1.9553301e+02 
-3.7050874e+02 -1.4756778e+02 -7.6444827e+01 
-3.2452869e+02 -1.7853815e+02 1.4095276e+02 
-3.3075337e+02 -1.0701980e+02 1.6420350e+01 
-3.3926639e+02 -2.5869232e+02 -1.9033474e+02 
-2.3261490e+03 -9.2527968e+03 -1.5559671e+04 
-3.6614408e+02 -1.4094841e+02 -7.0752377e+01 
-3.2720564e+02 -1.1884002e+02 3.4046771e+01 
-3.6212201e+02 -1.3453413e+02 -6.5421348e+01 
-3.3479892e+02 -2.5290699e+02 -1.8469425e+02 
-3.2410778e+02 -1.2999645e+02 5.1553335e+01 
-3.5842197e+02 -1.2830669e+02 -6.0471743e+01 
-3.2360071e+02 -1.8714521e+02 1.5826561e+02 
-3.3041118e+02 -2.4696947e+02 -1.7864294e+02 
-3.2139752e+02 -1.4075780e+02 6.9029950e+01 
-3.5500761e+02 -1.2223833e+02 -5.5877746e+01 
-3.2613452e+02 -2.4089265e+02 -1.7209505e+02 
-3.1908682e+02 -1.5104611e+02 8.6445043e+01 
-3.2306716e+02 -1.9570044e+02 1.7501174e+02 
-3.5190214e+02 -1.1634469e+02 -5.1666096e+01 
-3.2197648e+02 -2.3418923e+02 -1.6482666e+02 
-3.1716974e+02 -1.6088767e+02 1.0379245e+02 
-3.4886478e+02 -1.1035782e+02 -4.8032107e+01 
-3.1757188e+02 -2.3157303e+02 -1.6198362e+02 
-3.2227174e+02 -2.0577651e+02 1.9714157e+02 
-3.1564739e+02 -1.7026004e+02 1.2105857e+02 
-3.4703496e+02 -1.0621694e+02 -4.1466336e+01 
2.7022678e+03 8.0822317e+03 -1.2114118e+03 
-3.4186135e+02 -2.6781209e+02 -2.0051018e+02 
-6.0858627e+01 -1.2153343e+04 9.2788888e+03 
-3.2909569e+02 -8.3856988e+01 -2.3769579e+01 
4.3332763e+03 9.9686836e+03 6.7995864e+03 
-3.3730932e+02 -2.6256882e+02 -1.9650503e+02 
-3.6543295e+02 -1.5210748e+02 -7.8194909e+01 
-3.2338680e+02 -9.7733207e+01 -2.0808206e+00 
-3.1450900e+02 -1.7924408e+02 1.3824247e+02 
-3.6069462e+02 -1.4559118e+02 -7.2019160e+01 
-3.3277912e+02 -2.5718627e+02 -1.9192501e+02 
-2.2144742e+03 -8.8851812e+03 -1.4804770e+04 
-3.1981162e+02 -1.0904803e+02 1.4794082e+01 
-3.5630907e+02 -1.3928641e+02 -6.6386992e+01 
-3.2829528e+02 -2.5171325e+02 -1.8693412e+02 
-3.1638478e+02 -1.2065664e+02 3.2255053e+01 
-3.5225260e+02 -1.3317535e+02 -6.1128794e+01 
-3.2387593e+02 -2.4611642e+02 -1.8149332e+02 
-3.1341724e+02 -1.3159571e+02 4.9592600e+01 
-3.4850580e+02 -1.2723909e+02 -5.6263796e+01 
-3.1377370e+02 -1.8760495e+02 1.5535555e+02 
-3.1953474e+02 -2.4037359e+02 -1.7563259e+02 
-3.1084817e+02 -1.4213122e+02 6.6893905e+01 
-3.4503388e+02 -1.2144936e+02 -5.1766572e+01 
-3.1530254e+02 -2.3449677e+02 -1.6926666e+02 
-3.0868828e+02 -1.5218695e+02 8.4127993e+01 
-3.1343407e+02 -1.9591157e+02 1.7189983e+02 
-3.4185966e+02 -1.1582130e+02 -4.7665572e+01 
-3.1118558e+02 -2.2800828e+02 -1.6217921e+02 
-3.0693088e+02 -1.6178961e+02 1.0128842e+02 
-3.3875295e+02 -1.1008416e+02 -4.4147116e+01 
-3.1288180e+02 -2.0564588e+02 1.9371391e+02 
-3.0684621e+02 -2.2550456e+02 -1.5938253e+02 
-3.0557598e+02 -1.7091774e+02 1.1836161e+02 
-3.3678989e+02 -1.0620229e+02 -3.7776948e+01 
4.1611755e+03 9.4553596e+03 6.5557430e+03 
2.5800190e+03 7.6249777e+03 -1.3413650e+03 
-6.5598119e+01 -1.1474084e+04 8.9203679e+03 
-3.5561650e+02 -1.4972668e+02 -7.3635907e+01 
-3.3100175e+02 -2.6040749e+02 -1.9642727e+02 
-3.1811790e+02 -8.6104398e+01 -2.5085859e+01 
-3.0461196e+02 -1.7965194e+02 1.3534592e+02 
-3.5087469e+02 -1.4351842e+02 -6.7515642e+01 
-3.2649943e+02 -2.5532485e+02 -1.9263455e+02 
-2.1060556e+03 -8.5260569e+03 -1.4076872e+04 
-3.1255712e+02 -9.9724819e+01 -3.6338547e+00 
-3.4647285e+02 -1.3751220e+02 -6.1938874e+01 
-3.2201712e+02 -2.5011968e+02 -1.8827612e+02 
-3.0907172e+02 -1.1084197e+02 1.3080409e+01 
-3.4238796e+02 -1.3168981e+02 -5.6749736e+01 
-3.1757927e+02 -2.4482981e+02 -1.8349673e+02 
-3.0575595e+02 -1.2223026e+02 3.0362710e+01 
-3.3860164e+02 -1.2603179e+02 -5.1966677e+01 
-3.0405635e+02 -1.8776013e+02 1.5225301e+02 
-3.1320375e+02 -2.3942265e+02 -1.7825896e+02 
-3.0290839e+02 -1.3294352e+02 4.7518616e+01 
-3.3508053e+02 -1.2050942e+02 -4.7564708e+01 
-3.0890422e+02 -2.3387521e+02 -1.7259135e+02 
-3.0046973e+02 -1.4324498e+02 6.4632731e+01 
-3.0389786e+02 -1.9581204e+02 1.6859108e+02 
-3.3184692e+02 -1.1513735e+02 -4.3573923e+01 
-3.0471101e+02 -2.2819866e+02 -1.6640918e+02 
-2.9844952e+02 -1.5306019e+02 8.1674819e+01 
-3.2868090e+02 -1.0964242e+02 -4.0171913e+01 
-3.0062932e+02 -2.2192488e+02 -1.5950368e+02 
-2.9684038e+02 -1.6241636e+02 9.8638316e+01 
-3.0357456e+02 -2.0520049e+02 1.9008661e+02 
-3.2659690e+02 -1.0601132e+02 -3.3998987e+01 
-2.9634725e+02 -2.1953398e+02 -1.5675385e+02 
-2.9564132e+02 -1.7129308e+02 1.1550978e+02 
3.9920636e+03 8.9596885e+03 6.3186359e+03 
-3.4581234e+02 -1.4727653e+02 -6.9023531e+01 
-2.0008769e+03 -8.1753597e+03 -1.3375536e+04 
-6.9387607e+01 -1.0824129e+04 8.5703438e+03 
-3.0735625e+02 -8.8138182e+01 -2.6444888e+01 
2.4608728e+03 7.1872220e+03 -1.4596350e+03 
-3.4106990e+02 -1.4136005e+02 -6.2953257e+01 
-2.9484000e+02 -1.7977076e+02 1.3228706e+02 
-3.2039979e+02 -2.5308869e+02 -1.9229625e+02 
-3.0193376e+02 -1.0149427e+02 -5.2438596e+00 
-3.1594507e+02 -2.4816869e+02 -1.8872127e+02 
-3.3665583e+02 -1.3563765e+02 -5.7427177e+01 
-2.9852962e+02 -1.1240586e+02 1.1297121e+01 
-3.1150792e+02 -2.4314231e+02 -1.8458896e+02 
-3.3254783e+02 -1.3009057e+02 -5.2303421e+01 
-2.9531570e+02 -1.2356577e+02 2.8388396e+01 
-3.0711270e+02 -2.3803653e+02 -1.8002474e+02 
-3.2872838e+02 -1.2469889e+02 -4.7599649e+01 
-2.9445238e+02 -1.8762025e+02 1.4898217e+02 
-2.9257854e+02 -1.3404545e+02 4.5350821e+01 
-3.0277705e+02 -2.3281951e+02 -1.7499284e+02 
-3.2516545e+02 -1.1943349e+02 -4.3291347e+01 
-2.9026035e+02 -1.4410527e+02 6.2266556e+01 
-2.9851464e+02 -2.2746751e+02 -1.6952042e+02 
-2.9446362e+02 -1.9541175e+02 1.6510976e+02 
-3.2188071e+02 -1.1430853e+02 -3.9410199e+01 
-2.8836960e+02 -1.5367264e+02 7.9106244e+01 
-2.9435537e+02 -2.2199088e+02 -1.6352334e+02 
-3.1866418e+02 -1.0904885e+02 -3.6125330e+01 
-2.8689833e+02 -1.6277531e+02 9.5863340e+01 
-2.9030353e+02 -2.1593105e+02 -1.5680029e+02 
-2.9435652e+02 -2.0445069e+02 1.8628387e+02 
-3.1647016e+02 -1.0566061e+02 -3.0150992e+01 
-2.8584460e+02 -1.7139402e+02 1.1252469e+02 
-2.8607129e+02 -2.1365284e+02 -1.5409739e+02 
3.8260267e+03 8.4814867e+03 6.0881626e+03 
-1.8989174e+03 -7.8330264e+03 -1.2700292e+04 
-3.3603997e+02 -1.4476502e+02 -6.4375970e+01 
-2.8519542e+02 -1.7960899e+02 1.2908776e+02 
-3.3129943e+02 -1.3912533e+02 -5.8350381e+01 
-7.2284792e+01 -1.0202651e+04 8.2286435e+03 
-2.9680637e+02 -8.9960730e+01 -2.7831558e+01 
2.3448056e+03 6.7684027e+03 -1.5665144e+03 
-3.1004959e+02 -2.4585292e+02 -1.8812078e+02 
-2.9151273e+02 -1.0304474e+02 -6.8948435e+00 
-3.2687673e+02 -1.3367320e+02 -5.2870395e+01 
-3.0564055e+02 -2.4109683e+02 -1.8476843e+02 
-2.8818181e+02 -1.1374348e+02 9.4609873e+00 
-3.2275028e+02 -1.2838911e+02 -4.7808387e+01 
-3.0124610e+02 -2.3624988e+02 -1.8086630e+02 
-2.8506111e+02 -1.2466763e+02 2.6349595e+01 
-2.9689045e+02 -2.3132839e+02 -1.7652048e+02 
-3.1890335e+02 -1.2325275e+02 -4.3181219e+01 
-2.8496531e+02 -1.8719424e+02 1.4556506e+02 
-2.8242543e+02 -1.3490659e+02 4.3107330e+01 
-2.9259103e+02 -2.2630133e+02 -1.7169687e+02 
-3.1530507e+02 -1.1823468e+02 -3.8964902e+01 
-2.8021853e+02 -1.4471780e+02 5.9814051e+01 
-2.8836156e+02 -2.2114423e+02 -1.6642124e+02 
-2.8513610e+02 -1.9472005e+02 1.6147791e+02 
-3.1197640e+02 -1.1334855e+02 -3.5192635e+01 
-2.7844789e+02 -1.5403061e+02 7.6441405e+01 
-2.8423153e+02 -2.1586663e+02 -1.6061014e+02 
-3.0871703e+02 -1.0831756e+02 -3.2025363e+01 
-2.7710499e+02 -1.6287336e+02 9.2983005e+01 
-2.8020454e+02 -2.1001947e+02 -1.5406958e+02 
-2.8523366e+02 -2.0340631e+02 1.8232764e+02 
-3.0642272e+02 -1.0516455e+02 -2.6250662e+01 
-2.7618706e+02 -1.7122799e+02 1.0942612e+02 
-2.7601513e+02 -2.0785334e+02 -1.5141327e+02 
-1.8001530e+03 -7.4989957e+03 -1.2050645e+04 
3.6631413e+03 8.0205484e+03 5.8642023e+03 
-3.2631727e+02 -1.4219919e+02 -5.9710880e+01 
-2.7568053e+02 -1.7917460e+02 1.2576799e+02 
-3.2158086e+02 -1.3682241e+02 -5.3724809e+01 
-7.4346293e+01 -9.6088264e+03 7.8951087e+03 
-2.8646446e+02 -9.1574115e+01 -2.9231425e+01 
-3.1715270e+02 -1.3162799e+02 -4.8286393e+01 
-2.8129059e+02 -1.0437903e+02 -8.5716139e+00 
2.2317958e+03 6.3679688e+03 -1.6623021e+03 
-2.9994573e+02 -2.3869780e+02 -1.8390460e+02 
-2.7802530e+02 -1.1485828e+02 7.5878371e+00 
-3.1301191e+02 -1.2659544e+02 -4.3282503e+01 
-2.9558069e+02 -2.3410611e+02 -1.8077937e+02 
-2.9122673e+02 -2.2943852e+02 -1.7711110e+02 
-2.7498972e+02 -1.2553989e+02 2.4262713e+01 
-3.0914240e+02 -1.2170413e+02 -3.8729194e+01 
-2.7559850e+02 -1.8649056e+02 1.4202171e+02 
-2.8690785e+02 -2.2470089e+02 -1.7298649e+02 
-2.7244721e+02 -1.3553161e+02 4.0805057e+01 
-3.0551443e+02 -1.1692434e+02 -3.4603047e+01 
-2.8264134e+02 -2.1986297e+02 -1.6837316e+02 
-2.7034313e+02 -1.4508786e+02 5.7292559e+01 
-2.7591977e+02 -1.9374585e+02 1.5771554e+02 
-2.7844100e+02 -2.1489964e+02 -1.6329552e+02 
-3.0214813e+02 -1.1226924e+02 -3.0938716e+01 
-2.6868398e+02 -1.5413999e+02 7.3697996e+01 
-2.7433589e+02 -2.0981964e+02 -1.5767084e+02 
-2.9885254e+02 -1.0746074e+02 -2.7889243e+01 
-2.6746080e+02 -1.6271698e+02 9.0015279e+01 
-2.7621157e+02 -2.0207679e+02 1.7823778e+02 
-2.7032913e+02 -2.0418339e+02 -1.5131235e+02 
-2.9646656e+02 -1.0453551e+02 -2.2314927e+01 
-2.6667002e+02 -1.7080204e+02 1.0623223e+02 
-2.6617599e+02 -2.0212828e+02 -1.4870192e+02 
-1.7045561e+03 -7.1732081e+03 -1.1426075e+04 
3.5034755e+03 7.5766481e+03 5.6466190e+03 
-3.1666060e+02 -1.3958514e+02 -5.5045397e+01 
-3.1193031e+02 -1.3445837e+02 -4.9093770e+01 
-2.6629755e+02 -1.7847516e+02 1.2234600e+02 
-7.5627669e+01 -9.0418385e+03 7.5695956e+03 
-3.0749945e+02 -1.2950997e+02 -4.3692434e+01 
-2.7632725e+02 -9.2980135e+01 -3.0630658e+01 
-2.7126440e+02 -1.0549965e+02 -1.0259718e+01 
2.1218234e+03 5.9853796e+03 -1.7473031e+03 
-3.0334789e+02 -1.2471822e+02 -3.8743002e+01 
-2.9008322e+02 -2.3162126e+02 -1.7965151e+02 
-2.6805755e+02 -1.1575336e+02 5.6926396e+00 
-2.8576071e+02 -2.2719375e+02 -1.7675753e+02 
-2.9946010e+02 -1.2006231e+02 -3.4260714e+01 
-2.6635516e+02 -1.8551729e+02 1.3837038e+02 
-2.6509950e+02 -1.2618628e+02 2.2143179e+01 
-2.8144529e+02 -2.2270478e+02 -1.7332642e+02 
-2.7716070e+02 -2.1814993e+02 -1.6942546e+02 
-2.6264241e+02 -1.3592485e+02 3.8459817e+01 
-2.9580733e+02 -1.1551230e+02 -3.0222774e+01 
-2.7292410e+02 -2.1349976e+02 -1.6502400e+02 
-2.6063328e+02 -1.4522038e+02 5.4718214e+01 
-2.6681880e+02 -1.9249770e+02 1.5384084e+02 
-2.9240884e+02 -1.1108080e+02 -2.6665222e+01 
-2.6874938e+02 -2.0872851e+02 -1.6014513e+02 
-2.5907773e+02 -1.5400631e+02 7.0892403e+01 
-2.8908273e+02 -1.0648886e+02 -2.3733490e+01 
-2.6466524e+02 -2.0384416e+02 -1.5470692e+02 
-2.5796635e+02 -1.6231229e+02 8.6976724e+01 
-2.6729545e+02 -2.0047118e+02 1.7403234e+02 
-2.6067447e+02 -1.9841662e+02 -1.4852968e+02 
-2.8661269e+02 -1.0378406e+02 -1.8360009e+01 
-2.5729486e+02 -1.7012283e+02 1.0295969e+02 
-2.5655147e+02 -1.9647104e+02 -1.4596406e+02 
-1.6120963e+03 -6.8556068e+03 -1.0826042e+04 
3.3470900e+03 7.1495424e+03 5.4352624e+03 
-3.0708494e+02 -1.3692819e+02 -5.0396146e+01 
-3.0236250e+02 -1.3203935e+02 -4.4473946e+01 
-2.5704872e+02 -1.7751790e+02 1.1883850e+02 
-2.9793137e+02 -1.2732598e+02 -3.9105198e+01 
-7.6183421e+01 -8.5008757e+03 7.2519732e+03 
-2.6639193e+02 -9.4180348e+01 -3.2016002e+01 
-2.6143168e+02 -1.0640888e+02 -1.1945390e+01 
-2.9377214e+02 -1.2276494e+02 -3.4206506e+01 
2.0148699e+03 5.6201041e+03 -1.8218277e+03 
-2.5827649e+02 -1.1643155e+02 3.7895694e+00 
-2.8045741e+02 -2.2462154e+02 -1.7536538e+02 
-2.7617619e+02 -2.2035735e+02 -1.7270645e+02 
-2.8986977e+02 -1.1833530e+02 -2.9792291e+01 
-2.5723838e+02 -1.8428218e+02 1.3462774e+02 
-2.5538879e+02 -1.2661023e+02 2.0005517e+01 
-2.7189762e+02 -2.1604561e+02 -1.6951543e+02 
-2.5300991e+02 -1.3609034e+02 3.6086422e+01 
-2.8619645e+02 -1.1400692e+02 -2.5840428e+01 
-2.6764511e+02 -2.1167184e+02 -1.6584018e+02 
-2.6343573e+02 -2.0720744e+02 -1.6165184e+02 
-2.5108844e+02 -1.4512001e+02 5.2106051e+01 
-2.5783717e+02 -1.9098384e+02 1.4987034e+02 
-2.8277044e+02 -1.0979191e+02 -2.2388281e+01 
-2.5928351e+02 -2.0262607e+02 -1.5697215e+02 
-2.4962920e+02 -1.5363482e+02 6.8039817e+01 
-2.7941868e+02 -1.0541077e+02 -1.9573967e+01 
-2.5521674e+02 -1.9793494e+02 -1.5172008e+02 
-2.5849016e+02 -1.9859828e+02 1.6972764e+02 
-2.4862240e+02 -1.6166510e+02 8.3882625e+01 
-2.7687130e+02 -1.0291913e+02 -1.4401477e+01 
-2.5123809e+02 -1.9271343e+02 -1.4572287e+02 
-2.4806307e+02 -1.6919679e+02 9.9623810e+01 
-1.5227406e+03 -6.5461371e+03 -1.0249987e+04 
-2.4713955e+02 -1.9087551e+02 -1.4320066e+02 
3.1940388e+03 6.7389723e+03 5.2299702e+03 
-2.9760396e+02 -1.3423290e+02 -4.5779247e+01 
-2.9289092e+02 -1.2957061e+02 -3.9881479e+01 
-2.4793624e+02 -1.7630978e+02 1.1526076e+02 
-2.8846161e+02 -1.2508190e+02 -3.4540804e+01 
-7.6067007e+01 -7.9851322e+03 6.9421225e+03 
-2.5665612e+02 -9.5176109e+01 -3.3374750e+01 
-2.8429741e+02 -1.2074198e+02 -2.9689057e+01 
-2.5179036e+02 -1.0710874e+02 -1.3615503e+01 
-2.4868042e+02 -1.1689545e+02 1.8920655e+00 
1.9109185e+03 5.2716201e+03 -1.8861919e+03 
-2.8038366e+02 -1.1652988e+02 -2.5339836e+01 
-2.4825114e+02 -1.8279273e+02 1.3080896e+02 
-2.7106396e+02 -2.1769720e+02 -1.7105008e+02 
-2.6682303e+02 -2.1359481e+02 -1.6862969e+02 
-2.4585634e+02 -1.2681493e+02 1.7863426e+01 
-2.6257988e+02 -2.0945831e+02 -1.6568137e+02 
-2.7669340e+02 -1.1241533e+02 -2.1471745e+01 
-2.4354890e+02 -1.3603188e+02 3.3698763e+01 
-2.5835753e+02 -2.0526335e+02 -1.6223357e+02 
-2.4897865e+02 -1.8921227e+02 1.4581906e+02 
-2.7324388e+02 -1.0840989e+02 -1.8123404e+01 
-2.5417301e+02 -2.0098219e+02 -1.5825924e+02 
-2.4170835e+02 -1.4479114e+02 4.9470096e+01 
-2.5004047e+02 -1.9658797e+02 -1.5377881e+02 
-2.4033871e+02 -1.5303051e+02 6.5154340e+01 
-2.6987057e+02 -1.0423392e+02 -1.5425920e+01 
-2.4980030e+02 -1.9646667e+02 1.6533848e+02 
-2.4598786e+02 -1.9208716e+02 -1.4871219e+02 
-2.3942985e+02 -1.6078103e+02 8.0747103e+01 
-2.6725176e+02 -1.0194818e+02 -1.0454294e+01 
-2.4201783e+02 -1.8706862e+02 -1.4289342e+02 
-2.3897618e+02 -1.6803008e+02 9.6238670e+01 
-1.4364537e+03 -6.2447468e+03 -9.6973373e+03 
-2.3793849e+02 -1.8533607e+02 -1.4041292e+02 
3.0443701e+03 6.3446645e+03 5.0305701e+03 
-2.8823012e+02 -1.3150319e+02 -4.1210315e+01 
-2.8352784e+02 -1.2705665e+02 -3.5331988e+01 
-2.3896235e+02 -1.7485757e+02 1.1162677e+02 
-2.7910220e+02 -1.2278272e+02 -3.0014824e+01 
-7.5330843e+01 -7.4938078e+03 6.6399356e+03 
-2.7493536e+02 -1.1865474e+02 -2.5206132e+01 
-2.4711785e+02 -9.5968606e+01 -3.4694706e+01 
-2.4233879e+02 -1.0760109e+02 -1.5257532e+01 
-2.3926802e+02 -1.1714747e+02 1.2882296e-02 
-2.7101297e+02 -1.1465177e+02 -2.0918689e+01 
-2.3939636e+02 -1.8105626e+02 1.2692788e+02 
1.8099531e+03 4.9394143e+03 -1.9407167e+03 
-2.6189877e+02 -2.1084709e+02 -1.6670948e+02 
-2.3650123e+02 -1.2680338e+02 1.5729832e+01 
-2.5769735e+02 -2.0690438e+02 -1.6453082e+02 
-2.6730885e+02 -1.1074348e+02 -1.7131880e+01 
-2.5348845e+02 -2.0294055e+02 -1.6182752e+02 
-2.3425892e+02 -1.3575305e+02 3.1309882e+01 
-2.4929466e+02 -1.9892157e+02 -1.5860861e+02 
-2.4024685e+02 -1.8719084e+02 1.4170064e+02 
-2.6383922e+02 -1.0694085e+02 -1.3885521e+01 
-2.3249301e+02 -1.4423799e+02 4.6823449e+01 
-2.4513296e+02 -1.9482060e+02 -1.5484888e+02 
-2.4101765e+02 -1.9061031e+02 -1.5056747e+02 
-2.3120676e+02 -1.5219820e+02 6.2249076e+01 
-2.6044781e+02 -1.0296446e+02 -1.1304016e+01 
-2.4123018e+02 -1.9408477e+02 1.6087825e+02 
-2.3697633e+02 -1.8629646e+02 -1.4568529e+02 
-2.3038977e+02 -1.5966549e+02 7.7583213e+01 
-2.5776275e+02 -1.0087734e+02 -6.5328545e+00 
-2.3301179e+02 -1.8147738e+02 -1.4004304e+02 
-2.3003583e+02 -1.6662874e+02 9.2817232e+01 
-1.3531984e+03 -5.9513858e+03 -9.1675047e+03 
-2.2894680e+02 -1.7984754e+02 -1.3760228e+02 
2.8981270e+03 5.9663331e+03 4.8368811e+03 
-2.7897475e+02 -1.2874237e+02 -3.6704462e+01 
-2.7428447e+02 -1.2450128e+02 -3.0840564e+01 
-2.3012927e+02 -1.7316786e+02 1.0794935e+02 
-2.6986410e+02 -1.2043267e+02 -2.5542290e+01 
-2.6569663e+02 -1.1650776e+02 -2.0772662e+01 
-7.4026303e+01 -7.0261088e+03 6.3453143e+03 
-2.3777552e+02 -9.6558894e+01 -3.5964169e+01 
-2.3307565e+02 -1.0788765e+02 -1.6859518e+01 
-2.3067688e+02 -1.7907994e+02 1.2299713e+02 
-2.6176795e+02 -1.1270575e+02 -1.6543631e+01 
-2.3003832e+02 -1.1718987e+02 -1.8358668e+00 
1.7119588e+03 4.6229813e+03 -1.9857279e+03 
-2.5295789e+02 -2.0407037e+02 -1.6234741e+02 
-2.2732285e+02 -1.2657843e+02 1.3616951e+01 
-2.4879548e+02 -2.0028465e+02 -1.6041343e+02 
-2.5805260e+02 -1.0899628e+02 -1.2835430e+01 
-2.4461993e+02 -1.9649034e+02 -1.5795717e+02 
-2.2513977e+02 -1.3525733e+02 2.8932036e+01 
-2.3164524e+02 -1.8492726e+02 1.3752747e+02 
-2.4045340e+02 -1.9264397e+02 -1.5496832e+02 
-2.5456572e+02 -1.0538979e+02 -9.6890053e+00 
-2.2344265e+02 -1.4346461e+02 4.4178355e+01 
-2.3631281e+02 -1.8871963e+02 -1.5142350e+02 
-2.5115904e+02 -1.0160742e+02 -7.2223727e+00 
-2.2223407e+02 -1.5114258e+02 5.9336209e+01 
-2.3221261e+02 -1.8468957e+02 -1.4734058e+02 
-2.3278391e+02 -1.9146089e+02 1.5635908e+02 
-2.2150337e+02 -1.5832379e+02 7.4403033e+01 
-2.2818008e+02 -1.8055888e+02 -1.4264154e+02 
-2.4841227e+02 -9.9711555e+01 -2.6510153e+00 
-2.2421828e+02 -1.7593537e+02 -1.3717360e+02 
-2.2124376e+02 -1.6499867e+02 8.9371420e+01 
-1.2729355e+03 -5.6660061e+03 -8.6598908e+03 
-2.2016325e+02 -1.7440520e+02 -1.3477035e+02 
2.7553481e+03 5.6036809e+03 4.6487156e+03 
-2.6984811e+02 -1.2595324e+02 -3.2276295e+01 
-2.6517095e+02 -1.2190770e+02 -2.6421781e+01 
-2.2143926e+02 -1.7124715e+02 1.0424023e+02 
-2.6075727e+02 -1.1803525e+02 -2.1137707e+01 
-2.5659092e+02 -1.1430479e+02 -1.6403039e+01 
-7.2203721e+01 -6.5812476e+03 6.0581694e+03 
-2.2862785e+02 -9.6947932e+01 -3.7171914e+01 
-2.2399998e+02 -1.0797001e+02 -1.8410041e+01 
-2.5265796e+02 -1.1069575e+02 -1.2228907e+01 
-2.2209550e+02 -1.7687083e+02 1.1902820e+02 
-2.2099068e+02 -1.1702481e+02 -3.6426740e+00 
-2.1832090e+02 -1.2614282e+02 1.1536328e+01 
-2.4893361e+02 -1.0717777e+02 -8.5964532e+00 
1.6169215e+03 4.3218233e+03 -2.0215561e+03 
-2.4423755e+02 -1.9736645e+02 -1.5796764e+02 
-2.4011386e+02 -1.9373448e+02 -1.5628104e+02 
-2.1619153e+02 -1.3454806e+02 2.6576750e+01 
-2.3597106e+02 -1.9010602e+02 -1.5407362e+02 
-2.2317715e+02 -1.8242916e+02 1.3331079e+02 
-2.4543187e+02 -1.0376075e+02 -5.5476961e+00 
-2.3183079e+02 -1.8642839e+02 -1.5131573e+02 
-2.1455776e+02 -1.4247498e+02 4.1546270e+01 
-2.2770993e+02 -1.8267662e+02 -1.4798588e+02 
-2.4201226e+02 -1.0016679e+02 -3.1945812e+00 
-2.1342156e+02 -1.4986825e+02 5.6427079e+01 
-2.2362311e+02 -1.7882263e+02 -1.4410067e+02 
-2.2446538e+02 -1.8860326e+02 1.5179193e+02 
-2.3920775e+02 -9.8454703e+01 1.1778806e+00 
-2.1277201e+02 -1.5676114e+02 7.1217741e+01 
-2.1959724e+02 -1.7487085e+02 -1.3958321e+02 
-2.1260179e+02 -1.6314570e+02 8.5912217e+01 
-1.1956245e+03 -5.3885612e+03 -8.1738878e+03 
-2.1563580e+02 -1.7043862e+02 -1.3428707e+02 
2.6160679e+03 5.2564006e+03 4.4658808e+03 
-2.6085947e+02 -1.2313817e+02 -2.7939905e+01 
-2.1158675e+02 -1.6900472e+02 -1.3191891e+02 
-2.5619647e+02 -1.1927860e+02 -2.2089689e+01 
-2.1289462e+02 -1.6910190e+02 1.0051016e+02 
-2.5179077e+02 -1.1559339e+02 -1.6815049e+01 
-2.4762706e+02 -1.1204893e+02 -1.2111126e+01 
-6.9912380e+01 -6.1584436e+03 5.7784194e+03 
-2.1967387e+02 -9.7136612e+01 -3.8307179e+01 
-2.4369156e+02 -1.0862494e+02 -7.9882312e+00 
-2.1365498e+02 -1.7443598e+02 1.1503159e+02 
-2.1511110e+02 -1.0784973e+02 -1.9898207e+01 
-2.1212473e+02 -1.1665437e+02 -5.3966082e+00 
-2.3996007e+02 -1.0529116e+02 -4.4284823e+00 
-2.0949537e+02 -1.2549925e+02 9.4988747e+00 
1.5248276e+03 4.0354501e+03 -2.0485361e+03 
-2.3573402e+02 -1.9073507e+02 -1.5357381e+02 
-2.3164903e+02 -1.8725310e+02 -1.5213709e+02 
-2.0741453e+02 -1.3362854e+02 2.4254865e+01 
-2.1484581e+02 -1.7970414e+02 1.2906081e+02 
-2.3644547e+02 -1.0205692e+02 -1.4749125e+00 
-2.2753866e+02 -1.8378630e+02 -1.5018008e+02 
-2.2342398e+02 -1.8027302e+02 -1.4765385e+02 
-2.0583907e+02 -1.4127304e+02 3.8937913e+01 
-2.3301481e+02 -9.8645649e+01 7.6627844e-01 
-2.1932183e+02 -1.7668929e+02 -1.4453882e+02 
-2.0477033e+02 -1.4837976e+02 5.3532238e+01 
-2.1627829e+02 -1.8552010e+02 1.4718667e+02 
-2.1524699e+02 -1.7300674e+02 -1.4085032e+02 
-2.3015603e+02 -9.7109730e+01 4.9409864e+00 
-2.0419719e+02 -1.5498275e+02 6.8037689e+01 
-2.1122605e+02 -1.6922920e+02 -1.3651266e+02 
-1.1212236e+03 -5.1190057e+03 -7.7088807e+03 
-2.0411181e+02 -1.6107567e+02 8.2449734e+01 
-2.0726298e+02 -1.6498355e+02 -1.3138558e+02 
2.4803176e+03 4.9241760e+03 4.2881805e+03 
-2.5201711e+02 -1.2029915e+02 -2.3708863e+01 
-2.4736929e+02 -1.1661621e+02 -1.7857809e+01 
-2.0449765e+02 -1.6673853e+02 9.6768982e+01 
-2.0321639e+02 -1.6364215e+02 -1.2904989e+02 
-2.4297273e+02 -1.1310951e+02 -1.2587765e+01 
-2.3881304e+02 -1.0974269e+02 -7.9102590e+00 
-6.7200500e+01 -5.7569236e+03 5.5059898e+03 
-2.1091286e+02 -9.7125794e+01 -3.9359665e+01 
-2.3487648e+02 -1.0649588e+02 -3.8347936e+00 
-2.0535805e+02 -1.7178242e+02 1.1101684e+02 
-2.0640862e+02 -1.0752829e+02 -2.1313624e+01 
-2.0344039e+02 -1.1608061e+02 -7.0872940e+00 
-2.3113945e+02 -1.0333897e+02 -3.4453134e-01 
-2.0084650e+02 -1.2465035e+02 7.5149033e+00 
1.4356640e+03 3.7633782e+03 -2.0670068e+03 
-2.2744361e+02 -1.8417624e+02 -1.4916945e+02 
-2.0665434e+02 -1.7675980e+02 1.2478675e+02 
-1.9880937e+02 -1.3250204e+02 2.1976573e+01 
-2.2339757e+02 -1.8084000e+02 -1.4798494e+02 
-2.2761366e+02 -1.0028075e+02 2.5165357e+00 
-2.1931961e+02 -1.7753019e+02 -1.4627970e+02 
-1.9728750e+02 -1.3986269e+02 3.6363312e+01 
-2.1523016e+02 -1.7417641e+02 -1.4398565e+02 
-2.2417345e+02 -9.7046315e+01 4.6476252e+00 
-2.1114606e+02 -1.7075571e+02 -1.4108508e+02 
-1.9628166e+02 -1.4668168e+02 5.0661512e+01 
-2.0822621e+02 -1.8221964e+02 1.4255224e+02 
-2.0708220e+02 -1.6723953e+02 -1.3759211e+02 
-2.2126346e+02 -9.5678757e+01 8.6259407e+00 
-1.9578056e+02 -1.5299381e+02 6.4872459e+01 
-2.0306483e+02 -1.6363114e+02 -1.3343228e+02 
-1.0496896e+03 -4.8572951e+03 -7.2642491e+03 
-1.9577584e+02 -1.5879440e+02 7.8993282e+01 
-1.9909854e+02 -1.5956700e+02 -1.2847132e+02 
2.3481254e+03 4.6066828e+03 4.1154167e+03 
-2.4332843e+02 -1.1743786e+02 -1.9596205e+01 
-2.3869677e+02 -1.1392240e+02 -1.3739132e+01 
-1.9625072e+02 -1.6416350e+02 9.3025711e+01 
-1.9505132e+02 -1.5831394e+02 -1.2616534e+02 
-2.3431047e+02 -1.1058559e+02 -8.4687698e+00 
-2.3015604e+02 -1.0738811e+02 -3.8132466e+00 
-6.4115224e+01 -5.3759220e+03 5.2408117e+03 
-2.2621976e+02 -1.0431060e+02 2.1873566e-01 
-1.9720742e+02 -1.6891721e+02 1.0699265e+02 
-2.0234435e+02 -9.6916334e+01 -4.0319536e+01 
-1.9789237e+02 -1.0700720e+02 -2.2646408e+01 
-1.9493783e+02 -1.1530557e+02 -8.7048977e+00 
-2.2247855e+02 -1.0132315e+02 3.6428987e+00 
-1.9237478e+02 -1.2359879e+02 5.5941441e+00 
1.3494175e+03 3.5051311e+03 -2.0773107e+03 
-1.9860580e+02 -1.7360380e+02 1.2049698e+02 
-2.1894296e+02 -9.8434024e+01 6.4143431e+00 
-2.1936261e+02 -1.7769026e+02 -1.4475793e+02 
-1.9037685e+02 -1.3117186e+02 1.9751449e+01 
-2.1535604e+02 -1.7449505e+02 -1.4382778e+02 
-2.1131076e+02 -1.7133708e+02 -1.4237552e+02 
-1.8890420e+02 -1.3824788e+02 3.3831845e+01 
-2.1549439e+02 -9.5370407e+01 8.4373713e+00 
-2.0724655e+02 -1.6813747e+02 -1.4031399e+02 
-2.0318017e+02 -1.6487435e+02 -1.3762740e+02 
-2.0031250e+02 -1.7871011e+02 1.3789665e+02 
-1.8795703e+02 -1.4477861e+02 4.7824038e+01 
-2.1253587e+02 -9.4163191e+01 1.2220862e+01 
-1.9912666e+02 -1.6151901e+02 -1.3432862e+02 
-1.8752390e+02 -1.5079958e+02 6.1730919e+01 
-1.9511192e+02 -1.5807426e+02 -1.3034449e+02 
-9.8097861e+02 -4.6033849e+03 -6.8393690e+03 
-1.8759597e+02 -1.5630779e+02 7.5551429e+01 
-1.9114124e+02 -1.5418613e+02 -1.2554655e+02 
2.2195167e+03 4.3035896e+03 3.9473910e+03 
-2.3479991e+02 -1.1455573e+02 -1.5614421e+01 
-2.3018544e+02 -1.1119877e+02 -9.7461005e+00 
-1.8815622e+02 -1.6138333e+02 8.9288593e+01 
-1.8709079e+02 -1.5301690e+02 -1.2326743e+02 
-2.2581049e+02 -1.0802329e+02 -4.4704429e+00 
-2.2166248e+02 -1.0498684e+02 1.6763177e-01 
-2.1772768e+02 -1.0207066e+02 4.1602088e+00 
-1.8920577e+02 -1.6584746e+02 1.0296693e+02 
-6.0702594e+01 -5.0146817e+03 4.9828212e+03 
-1.9396808e+02 -9.6509121e+01 -4.1177425e+01 
-1.8956242e+02 -1.0628799e+02 -2.3887173e+01 
-2.1398349e+02 -9.9245142e+01 7.5218201e+00 
-1.8661742e+02 -1.1433134e+02 -1.0240120e+01 
-1.8408091e+02 -1.2234729e+02 3.7457633e+00 
-1.9070313e+02 -1.7024382e+02 1.1619906e+02 
-2.1043929e+02 -9.6518034e+01 1.0206708e+01 
1.2660752e+03 3.2602391e+03 -2.0797942e+03 
-1.8211800e+02 -1.2964137e+02 1.7588478e+01 
-2.1148725e+02 -1.7127772e+02 -1.4034243e+02 
-2.0752093e+02 -1.6821840e+02 -1.3966865e+02 
-2.0350893e+02 -1.6520668e+02 -1.3847044e+02 
-1.8069049e+02 -1.3643263e+02 3.1352271e+01 
-2.0698328e+02 -9.3618976e+01 1.2123922e+01 
-1.9947027e+02 -1.6215548e+02 -1.3664165e+02 
-1.9254043e+02 -1.7499985e+02 1.3322713e+02 
-1.7979806e+02 -1.4267523e+02 4.5028316e+01 
-1.9542170e+02 -1.5904403e+02 -1.3416842e+02 
-2.0397864e+02 -9.2563831e+01 1.5714350e+01 
-1.9137832e+02 -1.5584359e+02 -1.3106238e+02 
-1.7942912e+02 -1.4840541e+02 5.8621273e+01 
-9.1504574e+02 -4.3572303e+03 -6.4336146e+03 
-1.8736568e+02 -1.5255652e+02 -1.2725171e+02 
-1.7957439e+02 -1.5362184e+02 7.2132061e+01 
-1.8338983e+02 -1.4883854e+02 -1.2261359e+02 
2.0945145e+03 4.0145587e+03 3.7839062e+03 
-2.2643721e+02 -1.1165405e+02 -1.1775440e+01 
-2.2184100e+02 -1.0844667e+02 -5.8906056e+00 
-1.8021660e+02 -1.5840465e+02 8.5565174e+01 
-2.1747849e+02 -1.0542399e+02 -6.0461783e-01 
-1.7933404e+02 -1.4774823e+02 -1.2035840e+02 
-2.1333805e+02 -1.0254022e+02 4.0206328e+00 
-2.0940585e+02 -9.9777316e+01 7.9780040e+00 
-1.8135578e+02 -1.6258041e+02 9.8946860e+01 
-5.7007524e+01 -4.6724545e+03 4.7319581e+03 
-1.8578394e+02 -9.5905101e+01 -4.1924453e+01 
-1.8141904e+02 -1.0537224e+02 -2.5027048e+01 
-2.0565976e+02 -9.7106017e+01 1.1280762e+01 
-1.7847977e+02 -1.1316010e+02 -1.1684198e+01 
-1.7596580e+02 -1.2089865e+02 1.9783701e+00 
-1.8294922e+02 -1.6668767e+02 1.1189981e+02 
-2.0210797e+02 -9.4533622e+01 1.3882334e+01 
-1.7403404e+02 -1.2791401e+02 1.5496067e+01 
1.1856238e+03 3.0282385e+03 -2.0748064e+03 
-2.0381367e+02 -1.6493954e+02 -1.3592588e+02 
-1.9988865e+02 -1.6201054e+02 -1.3551038e+02 
-1.9864530e+02 -9.1792606e+01 1.5696180e+01 
-1.7264789e+02 -1.3442108e+02 2.8932754e+01 
-1.9591081e+02 -1.5913906e+02 -1.3456715e+02 
-1.9189840e+02 -1.5623008e+02 -1.3297123e+02 
-1.8491307e+02 -1.7109723e+02 1.2855013e+02 
-1.7180655e+02 -1.4037637e+02 4.2282231e+01 
-1.8786807e+02 -1.5326397e+02 -1.3071066e+02 
-1.9559669e+02 -9.0880974e+01 1.9095489e+01 
-1.8383500e+02 -1.5021206e+02 -1.2779585e+02 
-1.7149828e+02 -1.4581678e+02 5.5551102e+01 
-8.5184543e+02 -4.1187854e+03 -6.0463595e+03 
-1.7982437e+02 -1.4707629e+02 -1.2415634e+02 
-1.7171337e+02 -1.5074266e+02 6.8742426e+01 
-1.7584304e+02 -1.4352218e+02 -1.1967474e+02 
1.9731396e+03 3.7392467e+03 3.6247678e+03 
-2.1824513e+02 -1.0873398e+02 -8.0906123e+00 
-2.1366834e+02 -1.0566734e+02 -2.1839699e+00 
-1.7243432e+02 -1.5523419e+02 8.1862350e+01 
-2.0931943e+02 -1.0278890e+02 3.1174269e+00 
-1.7178028e+02 -1.4250550e+02 -1.1744056e+02 
-2.0518770e+02 -1.0004938e+02 7.7345567e+00 
-2.0125921e+02 -9.7431540e+01 1.1661032e+01 
-1.7366009e+02 -1.5912338e+02 9.4938974e+01 
-5.3073765e+01 -4.3485020e+03 4.4881653e+03 
-1.7779197e+02 -9.5105308e+01 -4.2552253e+01 
-1.7346264e+02 -1.0426164e+02 -2.6057687e+01 
-1.9751224e+02 -9.4906553e+01 1.4908776e+01 
-1.7052564e+02 -1.1179412e+02 -1.3028910e+01 
-1.6803057e+02 -1.1925580e+02 3.0001786e-01 
-1.7534687e+02 -1.6294325e+02 1.0760539e+02 
-1.9395380e+02 -9.2481308e+01 1.7430441e+01 
-1.6612639e+02 -1.2599340e+02 1.3482057e+01 
1.1080496e+03 2.8086725e+03 -2.0626999e+03 
-1.9633784e+02 -1.5867691e+02 -1.3151099e+02 
-1.9048507e+02 -8.9891510e+01 1.9143551e+01 
-1.9245545e+02 -1.5587231e+02 -1.3135556e+02 
-1.6477810e+02 -1.3221751e+02 2.6580886e+01 
-1.8851297e+02 -1.5313468e+02 -1.3066816e+02 
-1.7743337e+02 -1.6701074e+02 1.2387148e+02 
-1.8452784e+02 -1.5036132e+02 -1.2930516e+02 
-1.6398444e+02 -1.3788697e+02 3.9593094e+01 
-1.8739448e+02 -8.9114517e+01 2.2353862e+01 
-1.8051659e+02 -1.4753380e+02 -1.2725650e+02 
-1.6373353e+02 -1.4303930e+02 5.2527403e+01 
-1.7649444e+02 -1.4462360e+02 -1.2453137e+02 
-7.9133150e+02 -3.8880028e+03 -5.6769788e+03 
-1.7248616e+02 -1.4163237e+02 -1.2106071e+02 
-1.6401525e+02 -1.4767654e+02 6.5389185e+01 
-1.6849949e+02 -1.3823542e+02 -1.1673232e+02 
1.8554107e+03 3.4773052e+03 3.4697855e+03 
-2.1022768e+02 -1.0579662e+02 -4.5706954e+00 
-2.0567156e+02 -1.0286194e+02 1.3630652e+00 
-1.6481189e+02 -1.5187885e+02 7.8186425e+01 
-2.0133750e+02 -1.0011916e+02 6.6849786e+00 
-1.6442865e+02 -1.3728667e+02 -1.1451628e+02 
-1.9721568e+02 -9.7515346e+01 1.1298756e+01 
-1.9329203e+02 -9.5034168e+01 1.5198746e+01 
-1.6612133e+02 -1.5548385e+02 9.0949206e+01 
-4.8943864e+01 -4.0420959e+03 4.2513875e+03 
-1.6999231e+02 -9.4110893e+01 -4.3052995e+01 
-1.8954518e+02 -9.2647338e+01 1.8395446e+01 
-1.6569378e+02 -1.0295801e+02 -2.6971297e+01 
-1.6275595e+02 -1.1023581e+02 -1.4266594e+01 
-1.6789878e+02 -1.5901860e+02 1.0332135e+02 
-1.8598098e+02 -9.0361385e+01 2.0840771e+01 
-1.6027646e+02 -1.1742181e+02 -1.2818019e+00 
-1.5839662e+02 -1.2388330e+02 1.1553726e+01 
1.0333379e+03 2.6010905e+03 -2.0438298e+03 
-1.8250674e+02 -8.7915640e+01 2.2455962e+01 
-1.8905561e+02 -1.5249136e+02 -1.2710018e+02 
-1.8521742e+02 -1.4980489e+02 -1.2720654e+02 
-1.5708297e+02 -1.2982640e+02 2.4303698e+01 
-1.7010413e+02 -1.6274897e+02 1.1919635e+02 
-1.8131181e+02 -1.4719434e+02 -1.2677572e+02 
-1.7735533e+02 -1.4454963e+02 -1.2564565e+02 
-1.7937604e+02 -8.7264057e+01 2.5479564e+01 
-1.5633381e+02 -1.3521221e+02 3.6967656e+01 
-1.7336439e+02 -1.4185356e+02 -1.2380816e+02 
-1.5613716e+02 -1.4007883e+02 4.9556621e+01 
-7.3345728e+02 -3.6648327e+03 -5.3248500e+03 
-1.6935420e+02 -1.3907786e+02 -1.2127117e+02 
-1.6534908e+02 -1.3622394e+02 -1.1796707e+02 
-1.5648248e+02 -1.4442995e+02 6.2078451e+01 
-1.6135767e+02 -1.3297705e+02 -1.1378864e+02 
1.7413448e+03 3.2283818e+03 3.3187742e+03 
-2.0238804e+02 -1.0284311e+02 -1.2258346e+00 
-1.9785402e+02 -1.0003163e+02 4.7403528e+00 
-1.5735184e+02 -1.4834571e+02 7.4543163e+01 
-1.9353614e+02 -9.7415866e+01 1.0087902e+01 
-1.8942553e+02 -9.4939079e+01 1.4703147e+01 
-1.5727820e+02 -1.3209013e+02 -1.1158796e+02 
-1.8550790e+02 -9.2585968e+01 1.8581149e+01 
-1.5874209e+02 -1.5166948e+02 8.6982952e+01 
-4.4659120e+01 -3.7525191e+03 4.0215708e+03 
-1.8176223e+02 -9.0328870e+01 2.1730899e+01 
-1.6238517e+02 -9.2923149e+01 -4.3419431e+01 
-1.5811310e+02 -1.0146332e+02 -2.7760664e+01 
-1.5517175e+02 -1.0848777e+02 -1.5390168e+01 
-1.6060757e+02 -1.5492188e+02 9.9052724e+01 
-1.7819318e+02 -8.8174020e+01 2.4103606e+01 
-1.5270491e+02 -1.1539997e+02 -2.7601729e+00 
-1.5084647e+02 -1.2158770e+02 9.7177892e+00 
-1.7471397e+02 -8.5864785e+01 2.5623873e+01 
9.6147356e+02 2.4050482e+03 -2.0185537e+03 
-1.8196263e+02 -1.4638468e+02 -1.2269556e+02 
-1.4956451e+02 -1.2725243e+02 2.2107671e+01 
-1.7817045e+02 -1.4380980e+02 -1.2306533e+02 
-1.6292798e+02 -1.5832061e+02 1.1452943e+02 
-1.7430349e+02 -1.4131925e+02 -1.2289180e+02 
-1.7154498e+02 -8.5328996e+01 2.8463225e+01 
-1.4885689e+02 -1.3235748e+02 3.4412132e+01 
-1.7037740e+02 -1.3879586e+02 -1.2199466e+02 
-1.6640838e+02 -1.3622373e+02 -1.2036760e+02 
-1.4871155e+02 -1.3694142e+02 4.6644681e+01 
-6.7817565e+02 -3.4492225e+03 -4.9893551e+03 
-1.6241162e+02 -1.3357491e+02 -1.1801730e+02 
-1.4911752e+02 -1.4100959e+02 5.8815832e+01 
-1.5841093e+02 -1.3085067e+02 -1.1487757e+02 
1.6309566e+03 2.9921200e+03 3.1715559e+03 
-1.5441586e+02 -1.2774630e+02 -1.1084593e+02 
-1.9472864e+02 -9.9874640e+01 1.9344518e+00 
-1.9021826e+02 -9.7177615e+01 7.9383548e+00 
-1.5005672e+02 -1.4464206e+02 7.0937832e+01 
-1.8591808e+02 -9.4680169e+01 1.3316652e+01 
-1.8182010e+02 -9.2321598e+01 1.7938218e+01 
-1.5032777e+02 -1.2691469e+02 -1.0865802e+02 
-1.7790979e+02 -9.0087737e+01 2.1798806e+01 
-1.5152493e+02 -1.4768809e+02 8.3045124e+01 
-1.7416642e+02 -8.7951647e+01 2.4905818e+01 
-4.0259531e+01 -3.4790662e+03 3.7986615e+03 
-1.5497076e+02 -9.1543543e+01 -4.3644938e+01 
-1.5072134e+02 -9.9779712e+01 -2.8419196e+01 
-1.4777421e+02 -1.0655282e+02 -1.6393161e+01 
-1.5347574e+02 -1.5066143e+02 9.4804041e+01 
-1.7059348e+02 -8.5919355e+01 2.7209777e+01 
-1.4531744e+02 -1.1319380e+02 -4.1287737e+00 
-1.4347779e+02 -1.1911085e+02 7.9803859e+00 
-1.6710988e+02 -8.3738675e+01 2.8638296e+01 
8.9243975e+02 2.2201081e+03 -1.9872316e+03 
-1.5590737e+02 -1.5373448e+02 1.0987489e+02 
-1.7505434e+02 -1.4035902e+02 -1.1829891e+02 
-1.4222483e+02 -1.2450058e+02 1.9998734e+01 
-1.7131020e+02 -1.3788892e+02 -1.1893367e+02 
-1.6390442e+02 -8.3308649e+01 3.1296032e+01 
-1.6748396e+02 -1.3551099e+02 -1.1901807e+02 
-1.4155601e+02 -1.2932843e+02 3.1932218e+01 
-1.6359031e+02 -1.3310131e+02 -1.1835388e+02 
-1.5964523e+02 -1.3064524e+02 -1.1693660e+02 
-6.2543916e+02 -3.2411160e+03 -4.6698812e+03 
-1.4145916e+02 -1.3363340e+02 4.3797014e+01 
-1.5566378e+02 -1.2811530e+02 -1.1477162e+02 
-1.4192294e+02 -1.3742240e+02 5.5606470e+01 
-1.5166927e+02 -1.2551270e+02 -1.1179422e+02 
1.5242592e+03 2.7681605e+03 3.0279601e+03 
-1.8725112e+02 -9.6892511e+01 4.9012888e+00 
-1.4767215e+02 -1.2254290e+02 -1.0790640e+02 
-1.4292907e+02 -1.4077542e+02 6.7375258e+01 
-1.8276613e+02 -9.4301252e+01 1.0948154e+01 
-1.7848531e+02 -9.1913359e+01 1.6362281e+01 
-1.7440152e+02 -8.9664047e+01 2.0995043e+01 
-1.4357603e+02 -1.2175964e+02 -1.0572890e+02 
-1.7049997e+02 -8.7540388e+01 2.4842858e+01 
-1.4447234e+02 -1.4354770e+02 7.9140208e+01 
-1.6676017e+02 -8.5516272e+01 2.7911454e+01 
-3.5783735e+01 -3.2210446e+03 3.5826058e+03 
-1.4774932e+02 -8.9973737e+01 -4.3723573e+01 
-1.4351924e+02 -9.7909582e+01 -2.8940969e+01 
-1.4650568e+02 -1.4624574e+02 9.0579431e+01 
-1.4056453e+02 -1.0443401e+02 -1.7269753e+01 
-1.6318442e+02 -8.3597612e+01 3.0150688e+01 
-1.3811569e+02 -1.1080709e+02 -5.3819050e+00 
-1.5969711e+02 -8.1537087e+01 3.1490823e+01 
-1.3629257e+02 -1.1645728e+02 6.3470683e+00 
-1.4904456e+02 -1.4899948e+02 1.0523654e+02 
-1.3506619e+02 -1.2157610e+02 1.7982268e+01 
8.2621836e+02 2.0458393e+03 -1.9502255e+03 
-1.6832598e+02 -1.3441678e+02 -1.1391166e+02 
-1.6463210e+02 -1.3204447e+02 -1.1481290e+02 
-1.5645704e+02 -8.1202345e+01 3.3969763e+01 
-1.6084890e+02 -1.2977158e+02 -1.1515586e+02 
-1.3443361e+02 -1.2613105e+02 2.9533097e+01 
-1.5699005e+02 -1.2746769e+02 -1.1472467e+02 
-5.7520000e+02 -3.0404532e+03 -4.3658226e+03 
-1.5307128e+02 -1.2511951e+02 -1.1351660e+02 
-1.3438255e+02 -1.3016140e+02 4.1018579e+01 
-1.4910749e+02 -1.2270009e+02 -1.1153576e+02 
-1.3490131e+02 -1.3367563e+02 5.2455072e+01 
-1.4512139e+02 -1.2021069e+02 -1.0871887e+02 
1.4212636e+03 2.5561412e+03 2.8878260e+03 
-1.7995637e+02 -9.3898190e+01 7.6664584e+00 
-1.7549868e+02 -9.1404062e+01 1.3761466e+01 
-1.3597144e+02 -1.3675355e+02 6.3859868e+01 
-1.4112432e+02 -1.1736706e+02 -1.0497213e+02 
-1.7123907e+02 -8.9116917e+01 1.9216452e+01 
-1.6717124e+02 -8.6967775e+01 2.3865287e+01 
-1.3702137e+02 -1.1662477e+02 -1.0280304e+02 
-1.6328006e+02 -8.4945041e+01 2.7705027e+01 
-1.3758675e+02 -1.3925656e+02 7.5272321e+01 
-1.5954525e+02 -8.3023545e+01 3.0739641e+01 
-3.1268947e+01 -2.9777749e+03 3.3733487e+03 
-1.4072101e+02 -8.8215613e+01 -4.3650138e+01 
-1.3650758e+02 -9.5855559e+01 -2.9320784e+01 
-1.3969962e+02 -1.4168345e+02 8.6382675e+01 
-1.5596793e+02 -8.1209190e+01 3.2918334e+01 
-1.3354400e+02 -1.0213470e+02 -1.8014816e+01 
-1.3110136e+02 -1.0824397e+02 -6.5145227e+00 
-1.5247772e+02 -7.9259953e+01 3.4173648e+01 
-1.2929287e+02 -1.1363186e+02 4.8227796e+00 
-1.4234159e+02 -1.4412465e+02 1.0061782e+02 
-1.2809093e+02 -1.1848462e+02 1.6063098e+01 
7.6278952e+02 1.8818178e+03 -1.9078992e+03 
-1.4920504e+02 -7.9009540e+01 3.6476817e+01 
-1.6177262e+02 -1.2856067e+02 -1.0953488e+02 
-1.5813135e+02 -1.2627903e+02 -1.1070401e+02 
-1.5439370e+02 -1.2410341e+02 -1.1130612e+02 
-1.2749221e+02 -1.2277164e+02 2.7219451e+01 
-1.5057232e+02 -1.2189719e+02 -1.1110804e+02 
-5.2741015e+02 -2.8471692e+03 -4.0765814e+03 
-1.4668259e+02 -1.1964844e+02 -1.1010878e+02 
-1.2748432e+02 -1.2653239e+02 3.8313890e+01 
-1.4273921e+02 -1.1733085e+02 -1.0831111e+02 
-1.2805523e+02 -1.2977679e+02 4.9365952e+01 
-1.3876422e+02 -1.1494583e+02 -1.0565320e+02 
1.3219785e+03 2.3556982e+03 2.7510026e+03 
-1.7284457e+02 -9.0893335e+01 1.0222411e+01 
-1.6841626e+02 -8.8487796e+01 1.6370645e+01 
-1.2918632e+02 -1.3258450e+02 6.0395741e+01 
-1.3476984e+02 -1.1221958e+02 -1.0204515e+02 
-1.6417992e+02 -8.6292584e+01 2.1871444e+01 
-1.6013000e+02 -8.4234411e+01 2.6541216e+01 
-1.3066186e+02 -1.1151043e+02 -9.9882884e+01 
-1.5625100e+02 -8.2303108e+01 3.0377630e+01 
-1.3087048e+02 -1.3482313e+02 7.1445273e+01 
-1.5252280e+02 -8.0474559e+01 3.3382813e+01 
-2.6750894e+01 -2.7485922e+03 3.1708338e+03 
-1.3388589e+02 -8.6271306e+01 -4.3420255e+01 
-1.2968707e+02 -9.3620563e+01 -2.9554228e+01 
-1.3305966e+02 -1.3698340e+02 8.2217272e+01 
-1.4894535e+02 -7.8754771e+01 3.5505317e+01 
-1.2671388e+02 -9.9658555e+01 -1.8623971e+01 
-1.2427621e+02 -1.0550889e+02 -7.5222780e+00 
-1.4545326e+02 -7.6907465e+01 3.6679596e+01 
-1.2248082e+02 -1.1063984e+02 3.4118288e+00 
-1.3580025e+02 -1.3911910e+02 9.6021931e+01 
-1.2130146e+02 -1.1523213e+02 1.4245479e+01 
-1.4215012e+02 -7.6729931e+01 3.8810257e+01 
7.0213132e+02 1.7276269e+03 -1.8606180e+03 
-1.5538912e+02 -1.2279364e+02 -1.0516924e+02 
-1.5180293e+02 -1.2059550e+02 -1.0660760e+02 
-1.2073438e+02 -1.1925690e+02 2.4995464e+01 
-1.4811351e+02 -1.1850928e+02 -1.0746942e+02 
-4.8202135e+02 -2.6611946e+03 -3.8015693e+03 
-1.4433248e+02 -1.1639247e+02 -1.0750464e+02 
-1.2076712e+02 -1.2275367e+02 3.5687033e+01 
-1.4047486e+02 -1.1423448e+02 -1.0671395e+02 
-1.3655503e+02 -1.1200973e+02 -1.0509878e+02 
-1.2138730e+02 -1.2573377e+02 4.6343063e+01 
-1.3259433e+02 -1.0971992e+02 -1.0259866e+02 
1.2264104e+03 2.1664662e+03 2.6173504e+03 
-1.6591514e+02 -8.7879825e+01 1.2562273e+01 
-1.6151851e+02 -8.5554477e+01 1.8768696e+01 
-1.2257618e+02 -1.2827660e+02 5.6986656e+01 
-1.5730767e+02 -8.3442410e+01 2.4320156e+01 
-1.2860578e+02 -1.0710182e+02 -9.9127358e+01 
-1.5327782e+02 -8.1465932e+01 2.9015701e+01 
-1.4941304e+02 -7.9616376e+01 3.2853584e+01 
-1.2432576e+02 -1.3025612e+02 6.7662623e+01 
-1.2449525e+02 -1.0641756e+02 -9.6970885e+01 
-1.4569331e+02 -7.7870793e+01 3.5834009e+01 
-2.2263744e+01 -2.5328467e+03 2.9750025e+03 
-1.2724389e+02 -8.4143220e+01 -4.3030440e+01 
-1.2658768e+02 -1.3215458e+02 7.8086512e+01 
-1.4211740e+02 -7.6235426e+01 3.7904870e+01 
-1.2305835e+02 -9.1207837e+01 -2.9637748e+01 
-1.2007543e+02 -9.7009629e+01 -1.9093645e+01 
-1.1764199e+02 -1.0260672e+02 -8.4015636e+00 
-1.3862469e+02 -7.4480191e+01 3.9002153e+01 
-1.1585859e+02 -1.0748689e+02 2.1178594e+00 
-1.2942208e+02 -1.3399205e+02 9.1451898e+01 
-1.3529345e+02 -7.4363570e+01 4.0963849e+01 
-1.1470023e+02 -1.1182506e+02 1.2533086e+01 
6.4421959e+02 1.5828575e+03 -1.8087484e+03 
-1.4917022e+02 -1.1711887e+02 -1.0081503e+02 
-1.4564159e+02 -1.1499710e+02 -1.0252383e+02 
-1.1416275e+02 -1.1559394e+02 2.2864825e+01 
-1.4200319e+02 -1.1299239e+02 -1.0364589e+02 
-4.3898515e+02 -2.4824541e+03 -3.5402086e+03 
-1.3826561e+02 -1.1095664e+02 -1.0391470e+02 
-1.1423360e+02 -1.1883298e+02 3.3141683e+01 
-1.3444343e+02 -1.0888058e+02 -1.0333257e+02 
-1.3055066e+02 -1.0673944e+02 -1.0189954e+02 
-1.1490009e+02 -1.2155480e+02 4.3390029e+01 
-1.2660788e+02 -1.0453534e+02 -9.9556500e+01 
1.1345631e+03 1.9880790e+03 2.4867418e+03 
-1.5916689e+02 -8.4859774e+01 1.4679851e+01 
-1.5480435e+02 -8.2606428e+01 2.0949270e+01 
-1.1614339e+02 -1.2383850e+02 5.3636140e+01 
-1.5062146e+02 -8.0568809e+01 2.6556111e+01 
-1.2262884e+02 -1.0201582e+02 -9.6220529e+01 
-1.4661405e+02 -7.8664727e+01 3.1282222e+01 
-1.4276575e+02 -7.6887084e+01 3.5126416e+01 
-1.1795465e+02 -1.2556446e+02 6.3927746e+01 
-1.1851886e+02 -1.0134777e+02 -9.4069487e+01 
-1.3905659e+02 -7.5214204e+01 3.8086890e+01 
-1.7840038e+01 -2.3299048e+03 2.7857942e+03 
-1.2028534e+02 -1.2720615e+02 7.3993550e+01 
-1.2079473e+02 -8.1834060e+01 -4.2478199e+01 
-1.3548415e+02 -7.3652713e+01 4.0110872e+01 
-1.1662194e+02 -8.8620982e+01 -2.9568727e+01 
-1.1362982e+02 -9.4192376e+01 -1.9421139e+01 
-1.1120044e+02 -9.9542794e+01 -9.1495644e+00 
-1.3199236e+02 -7.1979184e+01 4.1135497e+01 
-1.0942833e+02 -1.0417916e+02 9.4381509e-01 
-1.2320831e+02 -1.2875275e+02 8.6910642e+01 
-1.2863565e+02 -7.1910990e+01 4.2932110e+01 
-1.0828969e+02 -1.0827031e+02 1.0928992e+01 
5.8902761e+02 1.4471085e+03 -1.7526582e+03 
-1.4311059e+02 -1.1153972e+02 -9.6472091e+01 
-1.0777993e+02 -1.1179036e+02 2.0830725e+01 
-1.3964193e+02 -1.0948734e+02 -9.8452458e+01 
-3.9825294e+02 -2.3108671e+03 -3.2919332e+03 
-1.3605738e+02 -1.0755633e+02 -9.9835240e+01 
-1.3236646e+02 -1.0559331e+02 -1.0033804e+02 
-1.0788641e+02 -1.1477848e+02 3.0681123e+01 
-1.2858328e+02 -1.0359026e+02 -9.9964702e+01 
-1.0859614e+02 -1.1724851e+02 4.0510184e+01 
-1.2472141e+02 -1.0152334e+02 -9.8713854e+01 
-1.2080060e+02 -9.9395180e+01 -9.6527696e+01 
1.0464374e+03 1.8201706e+03 2.3590622e+03 
-1.5259794e+02 -8.1835535e+01 1.6569631e+01 
-1.4827206e+02 -7.9646289e+01 2.2906667e+01 
-1.0989022e+02 -1.1927916e+02 5.0347522e+01 
-1.4411971e+02 -7.7674589e+01 2.8573454e+01 
-1.1683525e+02 -9.6964289e+01 -9.3326301e+01 
-1.4013731e+02 -7.5833652e+01 3.3334867e+01 
-1.3630799e+02 -7.4117992e+01 3.7190258e+01 
-1.1175907e+02 -1.2075737e+02 6.0243898e+01 
-1.1272958e+02 -9.6303396e+01 -9.1181139e+01 
-1.3261176e+02 -7.2507314e+01 4.0135747e+01 
-1.1415408e+02 -1.2214742e+02 6.9941486e+01 
-1.3510618e+01 -2.1391501e+03 2.6031453e+03 
-1.2904502e+02 -7.1008781e+01 4.2117870e+01 
-1.1453792e+02 -7.9346854e+01 -4.1762121e+01 
-1.1037820e+02 -8.5863993e+01 -2.9345573e+01 
-1.0737811e+02 -9.1211705e+01 -1.9604697e+01 
-1.2555599e+02 -6.9406097e+01 4.3074524e+01 
-1.0495322e+02 -9.6322916e+01 -9.7643133e+00 
-1.1715982e+02 -1.2341055e+02 8.2401078e+01 
-1.0319219e+02 -1.0072330e+02 -1.0809983e-01 
-1.2217677e+02 -6.9373328e+01 4.4710354e+01 
-1.0207229e+02 -1.0457529e+02 9.4356503e+00 
5.3652595e+02 1.3199873e+03 -1.6927154e+03 
-1.3720487e+02 -1.0605970e+02 -9.2139886e+01 
-1.0158851e+02 -1.0785421e+02 1.8895856e+01 
-3.5977594e+02 -2.1463469e+03 -3.0561903e+03 
-1.3379847e+02 -1.0406993e+02 -9.4392780e+01 
-1.3027052e+02 -1.0220501e+02 -9.6036728e+01 
-1.2662950e+02 -1.0030650e+02 -9.6774012e+01 
-1.0172812e+02 -1.1059878e+02 2.8308259e+01 
-1.2288903e+02 -9.8367574e+01 -9.6609981e+01 
-1.0247786e+02 -1.1282393e+02 3.7706601e+01 
-1.1906218e+02 -9.6365380e+01 -9.5541807e+01 
9.6203117e+02 1.6623752e+03 2.2342105e+03 
-1.1516775e+02 -9.4303192e+01 -9.3512953e+01 
-1.4620588e+02 -7.8809684e+01 1.8226771e+01 
-1.4191931e+02 -7.6677026e+01 2.4635830e+01 
-1.0381881e+02 -1.1460791e+02 4.7123979e+01 
-1.3780024e+02 -7.4762974e+01 3.0366948e+01 
-1.1122076e+02 -9.1950695e+01 -9.0446157e+01 
-1.3384558e+02 -7.2976068e+01 3.5168333e+01 
-1.3003795e+02 -7.1312442e+01 3.9039859e+01 
-1.0574070e+02 -1.1584429e+02 5.6614279e+01 
-1.0712382e+02 -9.1287563e+01 -8.8308297e+01 
-1.2635728e+02 -6.9753286e+01 4.1975502e+01 
-1.0819503e+02 -1.1698787e+02 6.5933443e+01 
-1.2279876e+02 -6.8306464e+01 4.3921088e+01 
-9.3045706e+00 -1.9599840e+03 2.4269898e+03 
-1.0847265e+02 -7.6684984e+01 -4.0881980e+01 
-1.0432724e+02 -8.2941301e+01 -2.8967802e+01 
-1.0132123e+02 -8.8073027e+01 -1.9643584e+01 
-1.1931468e+02 -6.6763298e+01 4.4814883e+01 
-9.8901885e+01 -9.2953443e+01 -1.0244751e+01 
-1.1127713e+02 -1.1797478e+02 7.7926208e+01 
-9.7152181e+01 -9.7126525e+01 -1.0364620e+00 
-1.1591623e+02 -6.6752455e+01 4.6294745e+01 
-9.6050377e+01 -1.0074800e+02 8.0548671e+00 
-3.2350529e+02 -1.9888013e+03 -2.8324411e+03 
-9.5591009e+01 -1.0379413e+02 1.7062408e+01 
4.8668220e+02 1.2011102e+03 -1.6292884e+03 
-1.3144777e+02 -1.0068232e+02 -8.7817443e+01 
-1.2810567e+02 -9.8748801e+01 -9.0343679e+01 
-1.2463691e+02 -9.6942662e+01 -9.2249173e+01 
-9.5761235e+01 -1.0630301e+02 2.6025634e+01 
-1.2104899e+02 -9.5100699e+01 -9.3221564e+01 
-1.1735500e+02 -9.3217136e+01 -9.3267632e+01 
-9.6547562e+01 -1.0829053e+02 3.4982130e+01 
-1.1356743e+02 -9.1270166e+01 -9.2383105e+01 
8.8133841e+02 1.5143285e+03 2.1120996e+03 
-1.3998776e+02 -7.5784993e+01 1.9647088e+01 
-1.0970414e+02 -8.9263861e+01 -9.0512669e+01 
-1.3574319e+02 -7.3701911e+01 2.6132340e+01 
-9.7931094e+01 -1.0983442e+02 4.3968592e+01 
-1.3166020e+02 -7.1837616e+01 3.1931974e+01 
-1.2773617e+02 -7.0095870e+01 3.6777923e+01 
-1.0578061e+02 -8.6979300e+01 -8.7581400e+01 
-1.2395312e+02 -6.8474409e+01 4.0670577e+01 
-9.9900993e+01 -1.1083494e+02 5.3042108e+01 
-1.0169745e+02 -8.6304260e+01 -8.5453418e+01 
-1.2029088e+02 -6.6955996e+01 4.3601717e+01 
-1.0240901e+02 -1.1173714e+02 6.1972654e+01 
-1.1674340e+02 -6.5549373e+01 4.5516439e+01 
-5.2491618e+00 -1.7918273e+03 2.2572589e+03 
-1.0259778e+02 -7.3852213e+01 -3.9838843e+01 
-9.8468951e+01 -7.9857811e+01 -2.8436136e+01 
-9.5459866e+01 -8.4782301e+01 -1.9538159e+01 
-1.1326683e+02 -6.4053978e+01 4.6352991e+01 
-9.3047815e+01 -8.9441326e+01 -1.0590787e+01 
-1.0556036e+02 -1.1245480e+02 7.3489218e+01 
-9.1310218e+01 -9.3396680e+01 -1.8406736e+00 
-1.0985282e+02 -6.4051110e+01 4.7682337e+01 
-9.0226198e+01 -9.6797028e+01 6.7877792e+00 
-2.8939199e+02 -1.8381317e+03 -2.6201624e+03 
-8.9789807e+01 -9.9619327e+01 1.5332057e+01 
4.3946091e+02 1.0901031e+03 -1.5627452e+03 
-1.2583423e+02 -9.5411091e+01 -8.3503380e+01 
-1.2255807e+02 -9.3527957e+01 -8.6303627e+01 
-1.1915079e+02 -9.1773778e+01 -8.8470986e+01 
-8.9988092e+01 -1.0190082e+02 2.3835442e+01 
-1.1561897e+02 -8.9980775e+01 -8.9679205e+01 
-1.1197517e+02 -8.8144070e+01 -8.9936456e+01 
-9.0807358e+01 -1.0365826e+02 3.2339424e+01 
-1.0823126e+02 -8.6242944e+01 -8.9237059e+01 
8.0434930e+02 1.3756681e+03 1.9926567e+03 
-1.3394027e+02 -7.2764372e+01 2.0827040e+01 
-1.2974031e+02 -7.0724492e+01 2.7392411e+01 
-9.2228800e+01 -1.0496873e+02 4.0884392e+01 
-1.0440408e+02 -8.4282416e+01 -8.7526913e+01 
-1.2569624e+02 -6.8902576e+01 3.3264535e+01 
-1.2180578e+02 -6.7197495e+01 3.8159557e+01 
-1.0050951e+02 -8.2055202e+01 -8.4733127e+01 
-1.1805036e+02 -6.5608529e+01 4.2078387e+01 
-9.4241111e+01 -1.0573931e+02 4.9530686e+01 
-1.1440962e+02 -6.4120090e+01 4.5010590e+01 
-9.6445809e+01 -8.1358412e+01 -8.2618947e+01 
-9.6796477e+01 -1.0640497e+02 5.8062545e+01 
-1.1087629e+02 -6.2741980e+01 4.6900528e+01 
-1.3697939e+00 -1.6341205e+03 2.0938816e+03 
-9.6911799e+01 -7.0852714e+01 -3.8635170e+01 
-9.2802852e+01 -7.6618943e+01 -2.7752590e+01 
-1.0741014e+02 -6.1282263e+01 4.7686053e+01 
-8.9794438e+01 -8.1346076e+01 -1.9289960e+01 
-8.7392163e+01 -8.5794161e+01 -1.0803363e+01 
-1.0000917e+02 -1.0685996e+02 6.9093577e+01 
-8.5668001e+01 -8.9542268e+01 -2.5210082e+00 
-1.0398467e+02 -6.1273035e+01 4.8871118e+01 
-8.4601806e+01 -9.2731637e+01 5.6348256e+00 
-2.5738698e+02 -1.6942343e+03 -2.4188476e+03 
-8.4187109e+01 -9.5339644e+01 1.3705966e+01 
3.9482341e+02 9.8660202e+02 -1.4934529e+03 
-1.2035952e+02 -9.0249345e+01 -7.9195918e+01 
-1.1715044e+02 -8.8411411e+01 -8.2270741e+01 
-1.1380649e+02 -8.6703001e+01 -8.4700229e+01 
-8.4410837e+01 -9.7402470e+01 2.1739541e+01 
-1.1033343e+02 -8.4951923e+01 -8.6145086e+01 
-1.0674331e+02 -8.3153984e+01 -8.6614863e+01 
-8.5259134e+01 -9.8937547e+01 2.9780977e+01 
-1.0304738e+02 -8.1289579e+01 -8.6102577e+01 
7.3104964e+02 1.2460344e+03 1.8758235e+03 
-1.2805976e+02 -6.9750799e+01 2.1763704e+01 
-1.2390690e+02 -6.7748533e+01 2.8412893e+01 
-8.6713358e+01 -1.0002129e+02 3.7874417e+01 
-9.9261411e+01 -7.9364836e+01 -8.4555390e+01 
-1.1990448e+02 -6.5962288e+01 3.4361271e+01 
-1.1605053e+02 -6.4285913e+01 3.9309784e+01 
-9.5401626e+01 -7.7184379e+01 -8.1902188e+01 
-1.1232586e+02 -6.2720117e+01 4.3259890e+01 
-8.8761865e+01 -1.0056765e+02 4.6083467e+01 
-1.0870987e+02 -6.1251022e+01 4.6198962e+01 
-9.1363627e+01 -7.6455957e+01 -7.9807292e+01 
-9.1357466e+01 -1.0100126e+02 5.4206820e+01 
-1.0519407e+02 -5.9889683e+01 4.8070651e+01 
2.3100341e+00 -1.4863257e+03 1.9367845e+03 
-9.1412708e+01 -6.7691107e+01 -3.7274923e+01 
-8.7328084e+01 -7.3230674e+01 -2.6920564e+01 
-1.0174160e+02 -5.8453311e+01 4.8812065e+01 
-8.4325026e+01 -7.7771547e+01 -1.8901777e+01 
-9.4622752e+01 -1.0119953e+02 6.4743145e+01 
-8.1935782e+01 -8.2020246e+01 -1.0884520e+01 
-9.8309208e+01 -5.8423111e+01 4.9860037e+01 
-8.0226966e+01 -8.5572530e+01 -3.0786591e+00 
-7.9179009e+01 -8.8561824e+01 4.5957189e+00 
-2.2744114e+02 -1.5569995e+03 -2.2280076e+03 
-7.8784872e+01 -9.0965627e+01 1.2184772e+01 
3.5272790e+02 8.9025355e+02 -1.4217768e+03 
-1.1501944e+02 -8.5200126e+01 -7.4892922e+01 
-1.1187792e+02 -8.3403049e+01 -7.8242875e+01 
-7.9031349e+01 -9.2818810e+01 1.9739469e+01 
-1.0859849e+02 -8.1735037e+01 -8.0934730e+01 
-1.0518634e+02 -8.0019586e+01 -8.2617096e+01 
-1.0165303e+02 -7.8252908e+01 -8.3300942e+01 
-7.9904473e+01 -9.4139362e+01 2.7309160e+01 
-9.8009191e+01 -7.6416520e+01 -8.2978188e+01 
6.6142052e+02 1.1250715e+03 1.7615560e+03 
-1.2234248e+02 -6.6747215e+01 2.2454750e+01 
-1.1823891e+02 -6.4777924e+01 2.9191288e+01 
-8.1385852e+01 -9.5002946e+01 3.4941758e+01 
-9.4269530e+01 -7.4517842e+01 -8.1597421e+01 
-1.1428069e+02 -6.3021493e+01 3.5219499e+01 
-1.1046607e+02 -6.1366578e+01 4.0225826e+01 
-9.0450551e+01 -7.2373703e+01 -7.9089132e+01 
-1.0677524e+02 -5.9815147e+01 4.4212341e+01 
-8.3463665e+01 -9.5330444e+01 4.2704123e+01 
-1.0318734e+02 -5.8355070e+01 4.7164318e+01 
-8.6445034e+01 -7.1603910e+01 -7.7020767e+01 
-8.6091558e+01 -9.5536004e+01 5.0409540e+01 
-9.9692642e+01 -5.6998855e+01 4.9024780e+01 
5.7687542e+00 -1.3479269e+03 1.7858933e+03 
-8.6097999e+01 -6.4372491e+01 -3.5763647e+01 
-8.2043309e+01 -6.9699575e+01 -2.5944925e+01 
-9.6257469e+01 -5.5573399e+01 4.9729799e+01 
-7.9051279e+01 -7.4066598e+01 -1.8377729e+01 
-8.9399746e+01 -9.5482757e+01 6.0442261e+01 
-7.6679144e+01 -7.8128641e+01 -1.0837460e+01 
-9.2823133e+01 -5.5507492e+01 5.0649012e+01 
-7.4988207e+01 -8.1497505e+01 -3.5157902e+00 
-7.3959298e+01 -8.4298392e+01 3.6694157e+00 
-1.9950528e+02 -1.4263131e+03 -2.0471727e+03 
-7.3584738e+01 -8.6508585e+01 1.0768582e+01 
3.1312946e+02 8.0071548e+02 -1.3480798e+03 
-1.0981058e+02 -8.0266016e+01 -7.0591960e+01 
-1.0673620e+02 -7.8506466e+01 -7.4217770e+01 
-7.3851172e+01 -8.8161402e+01 1.7836458e+01 
-1.0352168e+02 -7.6874509e+01 -7.7172274e+01 
-1.0017182e+02 -7.5189330e+01 -7.9093033e+01 
-7.4744583e+01 -8.9275241e+01 2.4926253e+01 
-9.6697828e+01 -7.3447196e+01 -7.9992575e+01 
-9.3109790e+01 -7.1630736e+01 -7.9862090e+01 
5.9543805e+02 1.0124277e+03 1.6498245e+03 
-1.1678469e+02 -6.3756391e+01 2.2898423e+01 
-1.1273219e+02 -6.1816560e+01 2.9725799e+01 
-7.6246944e+01 -8.9924957e+01 3.2089618e+01 
-1.0882033e+02 -6.0085135e+01 3.5837291e+01 
-8.9421368e+01 -6.9748860e+01 -7.8651917e+01 
-1.0504761e+02 -5.8445356e+01 4.0905657e+01 
-1.0139360e+02 -5.6900211e+01 4.4933706e+01 
-7.8346440e+01 -9.0038482e+01 3.9396610e+01 
-8.5649316e+01 -6.7630951e+01 -7.6294133e+01 
-9.7837118e+01 -5.5439325e+01 4.7904809e+01 
-8.1683508e+01 -6.6810419e+01 -7.4261504e+01 
-8.0997797e+01 -9.0019276e+01 4.6675201e+01 
-9.4367231e+01 -5.4076874e+01 4.9761554e+01 
8.9867525e+00 -1.2184317e+03 1.6411329e+03 
-8.0964554e+01 -6.0902481e+01 -3.4108554e+01 
-9.0953259e+01 -5.2649995e+01 5.0438773e+01 
-7.6946611e+01 -6.6032851e+01 -2.4832082e+01 
-7.3972316e+01 -7.0239860e+01 -1.7723345e+01 
-8.4338228e+01 -8.9718749e+01 5.6195840e+01 
-7.1622242e+01 -7.4129238e+01 -1.0666620e+01 
-8.7522406e+01 -5.2533726e+01 5.1238907e+01 
-6.9952389e+01 -7.7328127e+01 -3.8355927e+00 
-6.8943765e+01 -7.9953044e+01 2.8540828e+00 
-1.7353025e+02 -1.3020565e+03 -1.8758933e+03 
-6.8587956e+01 -8.1980696e+01 9.4569684e+00 
2.7598035e+02 7.1765721e+02 -1.2727211e+03 
-1.0473054e+02 -7.5448928e+01 -6.6290411e+01 
-1.0172183e+02 -7.3724762e+01 -7.0193291e+01 
-6.8871439e+01 -8.3442577e+01 1.6031464e+01 
-9.8571493e+01 -7.2125761e+01 -7.3410889e+01 
-9.5284272e+01 -7.0466678e+01 -7.5570882e+01 
-6.9780217e+01 -8.4357359e+01 2.2634496e+01 
-9.1871254e+01 -6.8743395e+01 -7.6687641e+01 
-8.8342064e+01 -6.6939607e+01 -7.6752247e+01 
5.3307303e+02 9.0775665e+02 1.5406128e+03 
-1.1138292e+02 -6.0780756e+01 2.3093543e+01 
-1.0738264e+02 -5.8868172e+01 3.0015421e+01 
-7.1296779e+01 -8.4799062e+01 2.9321366e+01 
-1.0351878e+02 -5.7158214e+01 3.6213619e+01 
-8.4709425e+01 -6.5065956e+01 -7.5717376e+01 
-9.9790084e+01 -5.5528406e+01 4.1348145e+01 
-9.6175551e+01 -5.3982429e+01 4.5422759e+01 
-7.3409547e+01 -8.4702795e+01 3.6165235e+01 
-8.0990349e+01 -6.2964774e+01 -7.3516907e+01 
-9.2653673e+01 -5.2511640e+01 4.8419295e+01 
-7.7071829e+01 -6.2084799e+01 -7.1531325e+01 
-7.6074607e+01 -8.4461233e+01 4.3008798e+01 
-8.9212345e+01 -5.1132112e+01 5.0280258e+01 
1.1946394e+01 -1.0973719e+03 1.5024289e+03 
-8.5823711e+01 -4.9691801e+01 5.0939197e+01 
-7.6008532e+01 -5.7287251e+01 -3.2318562e+01 
-7.2035372e+01 -6.2238378e+01 -2.3590051e+01 
-6.9086603e+01 -6.6300768e+01 -1.6945635e+01 
-7.9435617e+01 -8.3916506e+01 5.2009440e+01 
-6.6764488e+01 -7.0032856e+01 -1.0377755e+01 
-8.2402202e+01 -4.9510867e+01 5.1631475e+01 
-6.5119661e+01 -7.3076327e+01 -4.0423512e+00 
-6.4133031e+01 -7.5538513e+01 2.1470588e+00 
-1.4946689e+02 -1.1841076e+03 -1.7137418e+03 
-6.3795315e+01 -7.7395127e+01 8.2489662e+00 
2.4123037e+02 6.4076004e+02 -1.1960547e+03 
-9.9778324e+01 -7.0749846e+01 -6.1985648e+01 
-6.4092791e+01 -7.8675559e+01 1.4325191e+01 
-9.6832485e+01 -6.9060264e+01 -6.6167784e+01 
-9.3744177e+01 -6.7492602e+01 -6.9649276e+01 
-9.0518589e+01 -6.5856883e+01 -7.2049209e+01 
-6.5011581e+01 -7.9398624e+01 2.0436146e+01 
-8.7166970e+01 -6.4148051e+01 -7.3384319e+01 
4.7429081e+02 8.1071764e+02 1.4339176e+03 
-1.0613426e+02 -5.7822181e+01 2.3039531e+01 
-8.3698716e+01 -6.2350786e+01 -7.3646561e+01 
-1.0218647e+02 -5.5936107e+01 3.0060113e+01 
-6.6534885e+01 -7.9637520e+01 2.6640616e+01 
-9.8371443e+01 -5.4245581e+01 3.6348591e+01 
-8.0125764e+01 -6.0477729e+01 -7.2791916e+01 
-9.4688210e+01 -5.2622003e+01 4.1553283e+01 
-9.1115312e+01 -5.1069313e+01 4.5679260e+01 
-6.8651655e+01 -7.9334712e+01 3.3014725e+01 
-7.6465444e+01 -5.8384646e+01 -7.0756620e+01 
-8.7630913e+01 -4.9580537e+01 4.8707428e+01 
-7.2602012e+01 -5.7437534e+01 -6.8831559e+01 
-7.1319680e+01 -7.8872082e+01 3.9415891e+01 
-8.4221789e+01 -4.8173888e+01 5.0580825e+01 
-8.0862774e+01 -4.6708757e+01 5.1231898e+01 
1.4632067e+01 -9.8430585e+02 1.3697091e+03 
-7.1225221e+01 -5.3533577e+01 -3.0404327e+01 
-6.7306115e+01 -5.8324756e+01 -2.2228515e+01 
-7.4688592e+01 -7.8084874e+01 4.7889320e+01 
-6.4391813e+01 -6.2259652e+01 -1.6053184e+01 
-7.7456870e+01 -4.6449557e+01 5.1829254e+01 
-6.2104587e+01 -6.5851360e+01 -9.9780301e+00 
-6.0489552e+01 -6.8755199e+01 -4.1415277e+00 
-1.2726607e+02 -1.0723421e+03 -1.5603135e+03 
-5.9527159e+01 -7.1068733e+01 1.5448058e+00 
-5.9207066e+01 -7.2766217e+01 7.1430713e+00 
2.0882738e+02 5.6971723e+02 -1.1184280e+03 
-5.9515302e+01 -7.3874634e+01 1.2718143e+01 
-9.4954733e+01 -6.6168502e+01 -5.7675314e+01 
-9.2067346e+01 -6.4514175e+01 -6.2140587e+01 
-8.9037091e+01 -6.2977960e+01 -6.5887415e+01 
-8.5870311e+01 -6.1364617e+01 -6.8527737e+01 
-6.0438240e+01 -7.4412820e+01 1.8333559e+01 
-8.2578882e+01 -5.9667454e+01 -7.0081539e+01 
4.1905131e+02 7.2097660e+02 1.3297471e+03 
-1.0103666e+02 -5.4881707e+01 2.2736497e+01 
-7.9172311e+01 -5.7871986e+01 -7.0543149e+01 
-9.7140487e+01 -5.3023038e+01 2.9861072e+01 
-6.1960052e+01 -7.4453218e+01 2.4051316e+01 
-9.3373978e+01 -5.1351662e+01 3.6243818e+01 
-8.9736675e+01 -4.9732293e+01 4.1522546e+01 
-7.5661987e+01 -5.5993159e+01 -6.9873360e+01 
-8.6206790e+01 -4.8168569e+01 4.5704225e+01 
-6.4070611e+01 -7.3945897e+01 2.9950315e+01 
-7.2065691e+01 -5.3900748e+01 -6.8011809e+01 
-8.2762200e+01 -4.6655054e+01 4.8769808e+01 
-6.6729833e+01 -7.3262082e+01 3.5902663e+01 
-6.8265196e+01 -5.2880234e+01 -6.6162836e+01 
-7.9388649e+01 -4.5212368e+01 5.0663848e+01 
-7.6063556e+01 -4.3712007e+01 5.1318231e+01 
1.7030263e+01 -8.7881914e+02 1.2429052e+03 
-6.6608828e+01 -4.9648904e+01 -2.8378223e+01 
-6.2754297e+01 -5.4301384e+01 -2.0758887e+01 
-7.0092961e+01 -7.2232528e+01 4.3842465e+01 
-5.9884645e+01 -5.8127874e+01 -1.5056258e+01 
-7.2679858e+01 -4.3362062e+01 5.1835401e+01 
-5.7640403e+01 -6.1597856e+01 -9.4761511e+00 
-5.6060884e+01 -6.4379210e+01 -4.1398730e+00 
-1.0687869e+02 -9.6663464e+02 -1.4152287e+03 
-5.5125593e+01 -6.6559070e+01 1.0428454e+00 
-5.4822861e+01 -6.8109707e+01 6.1372426e+00 
-5.5138404e+01 -6.9055375e+01 1.1210691e+01 
1.7871815e+02 5.0423379e+02 -1.0401792e+03 
-9.0262904e+01 -6.1702959e+01 -5.3357741e+01 
-8.7427526e+01 -6.0086101e+01 -5.8112734e+01 
-8.4449023e+01 -5.8583413e+01 -6.2127382e+01 
-5.6059015e+01 -6.9414821e+01 1.6329301e+01 
-8.1335863e+01 -5.6993552e+01 -6.5008117e+01 
-7.8101244e+01 -5.5307291e+01 -6.6779607e+01 
3.6730910e+02 6.3820620e+02 1.2281196e+03 
-9.6089421e+01 -5.1959191e+01 2.2185414e+01 
-9.2242408e+01 -5.0130577e+01 2.9421157e+01 
-5.7570203e+01 -6.9259844e+01 2.1557882e+01 
-7.4755282e+01 -5.3510718e+01 -6.7440770e+01 
-8.8522570e+01 -4.8480087e+01 3.5902945e+01 
-8.4930277e+01 -4.6864967e+01 4.1259408e+01 
-7.1309180e+01 -5.1621396e+01 -6.6959443e+01 
-8.1443647e+01 -4.5287818e+01 4.5500340e+01 
-5.9663272e+01 -6.8548467e+01 2.6977857e+01 
-6.7781354e+01 -4.9523820e+01 -6.5280368e+01 
-7.8040368e+01 -4.3744533e+01 4.8608228e+01 
-6.2300818e+01 -6.7641580e+01 3.2475986e+01 
-7.4705254e+01 -4.2258410e+01 5.0530662e+01 
-6.4051470e+01 -4.8425519e+01 -6.3524853e+01 
-7.1418245e+01 -4.0713798e+01 5.1200000e+01 
1.9129738e+01 -7.8052738e+02 1.1219556e+03 
-6.2152203e+01 -4.5641446e+01 -2.6254318e+01 
-6.5643477e+01 -6.6367977e+01 3.9876594e+01 
-5.8374064e+01 -5.0178601e+01 -1.9194385e+01 
-5.5560631e+01 -5.3918055e+01 -1.3966955e+01 
-6.8063605e+01 -4.0262259e+01 5.1653499e+01 
-5.3368821e+01 -5.7286966e+01 -8.8825393e+00 
-5.1831667e+01 -5.9964513e+01 -4.0455756e+00 
-8.8255614e+01 -8.6686081e+02 -1.2781342e+03 
-5.0927084e+01 -6.2026623e+01 6.3567478e-01 
-5.0641699e+01 -6.3443038e+01 5.2289050e+00 
-5.0960822e+01 -6.4234949e+01 9.8031600e+00 
1.5084938e+02 4.4402575e+02 -9.6163536e+02 
-8.5708882e+01 -5.7349068e+01 -4.9032554e+01 
-8.2916574e+01 -5.5773437e+01 -5.4087889e+01 
-7.9980562e+01 -5.4308577e+01 -5.8374391e+01 
-5.1871895e+01 -6.4420897e+01 1.4426312e+01 
-7.6912785e+01 -5.2745801e+01 -6.1494925e+01 
-7.3728754e+01 -5.1072182e+01 -6.3481053e+01 
3.1901378e+02 5.6208607e+02 1.1290614e+03 
-9.1293643e+01 -4.9052867e+01 2.1388424e+01 
-8.7491293e+01 -4.7258787e+01 2.8745501e+01 
-5.3362255e+01 -6.4072172e+01 1.9165381e+01 
-7.0439930e+01 -4.9273923e+01 -6.4339445e+01 
-8.3814200e+01 -4.5633199e+01 3.5332399e+01 
-8.0264099e+01 -4.4024814e+01 4.0770061e+01 
-6.7057810e+01 -4.7371490e+01 -6.4048175e+01 
-7.6819379e+01 -4.2434232e+01 4.5072547e+01 
-5.5425322e+01 -6.3155210e+01 2.4103987e+01 
-6.3601707e+01 -4.5264927e+01 -6.2559648e+01 
-7.3457700e+01 -4.0858321e+01 4.8226069e+01 
-5.8027092e+01 -6.2021128e+01 2.9143522e+01 
-7.0163094e+01 -3.9323332e+01 5.0183518e+01 
-5.9949633e+01 -4.4086823e+01 -6.0916211e+01 
-6.6917981e+01 -3.7727307e+01 5.0879426e+01 
2.0921775e+01 -6.8907873e+02 1.0068081e+03 
-5.7846489e+01 -4.1520358e+01 -2.4048333e+01 
-6.1333591e+01 -6.0499616e+01 3.6000152e+01 
-5.4157959e+01 -4.5967970e+01 -1.7550155e+01 
-5.1413927e+01 -4.9644472e+01 -1.2799408e+01 
-6.3599362e+01 -3.7165525e+01 5.1287331e+01 
-4.9285607e+01 -5.2935282e+01 -8.2095641e+00 
-4.7799023e+01 -5.5529350e+01 -3.8684583e+00 
-7.1347542e+01 -7.7289949e+02 -1.1487060e+03 
-4.6929642e+01 -5.7490598e+01 3.1665593e-01 
-4.6661881e+01 -5.8785703e+01 4.4149521e+00 
-4.6980522e+01 -5.9432498e+01 8.4959499e+00 
1.2516901e+02 3.8881883e+02 -8.8310849e+02 
-8.1302257e+01 -5.3099783e+01 -4.4701506e+01 
-7.8540988e+01 -5.1570579e+01 -5.0073488e+01 
-7.5634493e+01 -5.0150300e+01 -5.4638041e+01 
-4.7873958e+01 -5.9449139e+01 1.2628107e+01 
-7.2599982e+01 -4.8621184e+01 -5.7996853e+01 
-6.9456673e+01 -4.6965075e+01 -6.0191687e+01 
2.7411065e+02 4.9230236e+02 1.0326041e+03 
-8.6652872e+01 -4.6158778e+01 2.0349337e+01 
-8.2888018e+01 -4.4405537e+01 2.7842346e+01 
-4.9331997e+01 -5.8906522e+01 1.6879782e+01 
-7.9246996e+01 -4.2811419e+01 3.4542352e+01 
-6.6218392e+01 -4.5167523e+01 -6.1241330e+01 
-7.5733714e+01 -4.1215144e+01 4.0064348e+01 
-6.2897588e+01 -4.3252042e+01 -6.1138461e+01 
-7.2327378e+01 -3.9614042e+01 4.4428833e+01 
-5.1351079e+01 -5.7779989e+01 2.1336356e+01 
-6.9005896e+01 -3.8005390e+01 4.7628878e+01 
-5.9514794e+01 -4.1135176e+01 -5.9846795e+01 
-5.3901556e+01 -5.6411757e+01 2.5913876e+01 
-6.5752700e+01 -3.6418607e+01 4.9625905e+01 
-5.5946863e+01 -3.9878090e+01 -5.8334394e+01 
-6.2552666e+01 -3.4766392e+01 5.0359215e+01 
2.2400607e+01 -6.0415757e+02 8.9742459e+02 
-5.7155129e+01 -5.4635871e+01 3.2222315e+01 
-5.3680689e+01 -3.7296071e+01 -2.1777662e+01 
-5.0096632e+01 -4.1682780e+01 -1.5843477e+01 
-5.9276938e+01 -3.4088523e+01 5.0740698e+01 
-4.7437135e+01 -4.5323738e+01 -1.1570084e+01 
-4.5385308e+01 -4.8562012e+01 -7.4718467e+00 
-4.3959120e+01 -5.1094620e+01 -3.6202219e+00 
-5.6104802e+01 -6.8463613e+02 -1.0266517e+03 
-4.3130486e+01 -5.2972717e+01 7.7881221e-02 
-4.2880966e+01 -5.4159626e+01 3.6917467e+00 
-4.3194669e+01 -5.4669555e+01 7.2896742e+00 
1.0162785e+02 3.3834636e+02 -8.0489255e+02 
-7.7056693e+01 -4.8944313e+01 -4.0369540e+01 
-7.4310673e+01 -4.7467974e+01 -4.6082052e+01 
-7.1416178e+01 -4.6101670e+01 -5.0933662e+01 
-4.4061315e+01 -5.4520045e+01 1.0939040e+01 
-6.8398010e+01 -4.4616302e+01 -5.4528041e+01 
2.3254170e+02 4.2854678e+02 9.3878182e+02 
-6.5280971e+01 -4.2986474e+01 -5.6921883e+01 
-8.2173717e+01 -4.3270074e+01 1.9074374e+01 
-7.8435799e+01 -4.1565714e+01 2.6724100e+01 
-4.5474001e+01 -5.3781438e+01 1.4708295e+01 
-7.4820622e+01 -4.0012438e+01 3.3547896e+01 
-6.2082656e+01 -4.1195832e+01 -5.8151881e+01 
-7.1335420e+01 -3.8437045e+01 3.9156896e+01 
-5.8817348e+01 -3.9270784e+01 -5.8231094e+01 
-6.7961020e+01 -3.6831922e+01 4.3581238e+01 
-4.7433345e+01 -5.2438455e+01 1.8683969e+01 
-6.4676015e+01 -3.5193844e+01 4.6825179e+01 
-5.5507180e+01 -3.7145346e+01 -5.7139449e+01 
-4.9915296e+01 -5.0825513e+01 2.2796857e+01 
-6.1463480e+01 -3.3555476e+01 4.8863114e+01 
-5.2028322e+01 -3.5813335e+01 -5.5776093e+01 
-5.8310713e+01 -3.1845242e+01 4.9642842e+01 
-5.3097904e+01 -4.8785550e+01 2.8553069e+01 
2.3564037e+01 -5.2548918e+02 7.9378548e+02 
-4.9641233e+01 -3.2980869e+01 -1.9461507e+01 
-4.6178607e+01 -3.7339025e+01 -1.4094099e+01 
-5.5084356e+01 -3.1048844e+01 5.0017367e+01 
-4.3621210e+01 -4.0975884e+01 -1.0298173e+01 
-4.1661216e+01 -4.4189994e+01 -6.6866210e+00 
-4.2476945e+01 -6.0196703e+02 -9.1171393e+02 
-4.0307133e+01 -4.6684532e+01 -3.3147127e+00 
-3.9525979e+01 -4.8497650e+01 -8.9969218e-02 
-3.9295700e+01 -4.9589420e+01 3.0551164e+00 
-3.9599574e+01 -4.9970491e+01 6.1853018e+00 
8.0181676e+01 2.9234631e+02 -7.2725976e+02 
-7.2990100e+01 -4.4867161e+01 -3.6046145e+01 
-7.0239139e+01 -4.3451061e+01 -4.2132440e+01 
-4.0429099e+01 -4.9657192e+01 9.3645910e+00 
-6.7333846e+01 -4.2150902e+01 -4.7283533e+01 
-6.4309409e+01 -4.0723443e+01 -5.1109321e+01 
1.9424707e+02 3.7051493e+02 8.4762711e+02 
-7.7866426e+01 -4.0376174e+01 1.7573200e+01 
-6.1198617e+01 -3.9133478e+01 -5.3687955e+01 
-7.4140701e+01 -3.8730282e+01 2.5408604e+01 
-4.1781632e+01 -4.8718750e+01 1.2659772e+01 
-7.0536710e+01 -3.7230241e+01 3.2370315e+01 
-5.8024716e+01 -3.7360829e+01 -5.5081367e+01 
-6.7066552e+01 -3.5688466e+01 3.8068361e+01 
-6.3713816e+01 -3.4090202e+01 4.2547047e+01 
-4.3663358e+01 -4.7149192e+01 1.6157647e+01 
-5.4805026e+01 -3.5434058e+01 -5.5330200e+01 
-6.0458466e+01 -3.2430308e+01 4.5827548e+01 
-5.1563757e+01 -3.3305451e+01 -5.4437031e+01 
-4.6057395e+01 -4.5276507e+01 1.9803901e+01 
-5.7283557e+01 -3.0744467e+01 4.7903128e+01 
-4.8176757e+01 -3.1906078e+01 -5.3238068e+01 
-5.4178756e+01 -2.8977935e+01 4.8735155e+01 
-4.9149318e+01 -4.2958485e+01 2.5003437e+01 
2.4414278e+01 -4.5284565e+02 6.9589654e+02 
-4.5711618e+01 -2.8590014e+01 -1.7121270e+01 
-5.1007420e+01 -2.8064490e+01 4.9121323e+01 
-4.2390248e+01 -3.2956970e+01 -1.2324764e+01 
-3.9955569e+01 -3.6626192e+01 -9.0060713e+00 
-3.8105468e+01 -3.9847007e+01 -5.8741020e+00 
-3.0412139e+01 -5.2480481e+02 -8.0367507e+02 
-3.6837242e+01 -4.2327454e+01 -2.9681506e+00 
-3.6111518e+01 -4.4093179e+01 -1.9773823e-01 
-3.5901867e+01 -4.5102499e+01 2.5003442e+00 
-3.6190613e+01 -4.5362682e+01 5.1842554e+00 
6.0793561e+01 2.5055749e+02 -6.5045827e+02 
-6.9123877e+01 -4.0847191e+01 -3.1746613e+01 
-6.6343074e+01 -3.9499354e+01 -3.8250892e+01 
-3.6971513e+01 -4.4888117e+01 7.9116087e+00 
-6.3398613e+01 -3.8280269e+01 -4.3717463e+01 
-6.0339103e+01 -3.6929423e+01 -4.7769032e+01 
1.5916718e+02 3.1790359e+02 7.5916791e+02 
-7.3745115e+01 -3.7461857e+01 1.5860378e+01 
-5.7208160e+01 -3.5398665e+01 -5.0513500e+01 
-7.0011977e+01 -3.5885290e+01 2.3920392e+01 
-3.8247197e+01 -4.3744935e+01 1.0745130e+01 
-6.6399295e+01 -3.4454036e+01 3.1038255e+01 
-5.4037103e+01 -3.3661235e+01 -5.2046636e+01 
-6.2925918e+01 -3.2963150e+01 3.6826582e+01 
-5.9579738e+01 -3.1387919e+01 4.1350048e+01 
-4.0030971e+01 -4.1935652e+01 1.3770602e+01 
-5.0847993e+01 -3.1746169e+01 -5.2445380e+01 
-5.6343144e+01 -2.9719172e+01 4.4653992e+01 
-4.7667803e+01 -2.9624224e+01 -5.1742754e+01 
-4.2314970e+01 -3.9782617e+01 1.6948717e+01 
-5.3199717e+01 -2.7994816e+01 4.6757927e+01 
-4.4372275e+01 -2.8168634e+01 -5.0718960e+01 
-5.0141410e+01 -2.6177906e+01 4.7643515e+01 
-4.5294063e+01 -3.7166831e+01 2.1586003e+01 
2.4959007e+01 -3.8605273e+02 6.0379649e+02 
-4.1872358e+01 -2.4143496e+01 -1.4781377e+01 
-4.7029281e+01 -2.5153170e+01 4.8057490e+01 
-3.8716143e+01 -2.8564011e+01 -1.0561971e+01 
-3.6428574e+01 -3.2307685e+01 -7.7199082e+00 
-3.4709366e+01 -3.5567809e+01 -5.0577301e+00 
-1.9856266e+01 -4.5308534e+02 -7.0236253e+02 
-3.3542655e+01 -3.8056447e+01 -2.5991841e+00 
-3.2881303e+01 -3.9790228e+01 -2.5777750e-01 
-3.2693972e+01 -4.0728372e+01 2.0221486e+00 
-3.2962039e+01 -4.0876534e+01 4.2883858e+00 
4.3436952e+01 2.1271541e+02 -5.7471240e+02 
-6.5480319e+01 -3.6857110e+01 -2.7493993e+01 
-3.3681924e+01 -4.0244861e+01 6.5883865e+00 
-6.2640574e+01 -3.5586080e+01 -3.4470665e+01 
-5.9623891e+01 -3.4465559e+01 -4.0272401e+01 
-5.6494851e+01 -3.3214679e+01 -4.4542779e+01 
1.2724572e+02 2.7040737e+02 6.7342513e+02 
-6.9827183e+01 -3.4506459e+01 1.3956945e+01 
-6.6061921e+01 -3.3011046e+01 2.2291899e+01 
-3.4862369e+01 -3.8893224e+01 8.9776768e+00 
-5.3310822e+01 -3.1768924e+01 -4.7430178e+01 
-6.2415151e+01 -3.1667273e+01 2.9588307e+01 
-5.8914426e+01 -3.0249522e+01 3.5467287e+01 
-5.0114151e+01 -3.0091388e+01 -4.9073304e+01 
-5.5553899e+01 -2.8719704e+01 4.0021707e+01 
-3.6525221e+01 -3.6828784e+01 1.1539080e+01 
-4.6934117e+01 -2.8208535e+01 -4.9594367e+01 
-5.2319969e+01 -2.7061656e+01 4.3329510e+01 
-4.3801688e+01 -2.6108498e+01 -4.9066853e+01 
-3.8673638e+01 -3.4368578e+01 1.4248203e+01 
-4.9197684e+01 -2.5313761e+01 4.5445408e+01 
-4.0592593e+01 -2.4611262e+01 -4.8222156e+01 
-4.6181270e+01 -2.3457323e+01 4.6379575e+01 
-4.1514123e+01 -3.1427117e+01 1.8315887e+01 
2.5212553e+01 -3.2499721e+02 5.1756600e+02 
-4.3130128e+01 -2.2331431e+01 4.6833325e+01 
-3.8101592e+01 -1.9669405e+01 -1.2470738e+01 
-3.5140233e+01 -2.4198603e+01 -8.8369858e+00 
-3.3028619e+01 -2.8065353e+01 -6.4699394e+00 
-3.1464007e+01 -3.1395862e+01 -4.2640651e+00 
-1.0751660e+01 -3.8677583e+02 -6.0765566e+02 
-3.0415637e+01 -3.3910112e+01 -2.2285161e+00 
-2.9827866e+01 -3.5621325e+01 -2.8367315e-01 
-2.9664609e+01 -3.6497650e+01 1.6146755e+00 
-2.9906573e+01 -3.6543939e+01 3.4996651e+00 
2.8099214e+01 1.7854862e+02 -5.0023144e+02 
-6.2076563e+01 -3.2863975e+01 -2.3318568e+01 
-3.0553010e+01 -3.5764825e+01 5.4043302e+00 
-5.9146981e+01 -3.1679307e+01 -3.0831822e+01 
-5.6023430e+01 -3.0676858e+01 -3.6988835e+01 
-5.2787543e+01 -2.9553273e+01 -4.1471639e+01 
9.8433870e+01 2.2771470e+02 5.9041314e+02 
-6.6130913e+01 -3.1483570e+01 1.1893094e+01 
-6.2304629e+01 -3.0081963e+01 2.0563512e+01 
-3.1618927e+01 -3.4205414e+01 7.3730751e+00 
-4.9512397e+01 -2.8224556e+01 -4.4477777e+01 
-5.8593717e+01 -2.8847200e+01 2.8064719e+01 
-5.5035957e+01 -2.7529826e+01 3.4033740e+01 
-4.6254586e+01 -2.6639901e+01 -4.6197401e+01 
-5.1633885e+01 -2.6074636e+01 3.8601705e+01 
-3.3135539e+01 -3.1871458e+01 9.4829113e+00 
-4.3054300e+01 -2.4818526e+01 -4.6807086e+01 
-4.8380192e+01 -2.4454657e+01 4.1888005e+01 
-3.9948866e+01 -2.2762375e+01 -4.6430512e+01 
-3.5118737e+01 -2.9070238e+01 1.1723633e+01 
-4.5263128e+01 -2.2705659e+01 4.3991731e+01 
-4.2279511e+01 -2.0826356e+01 4.4962192e+01 
-3.6814390e+01 -2.1241200e+01 -4.5760792e+01 
-3.7789442e+01 -2.5764105e+01 1.5212412e+01 
-3.9287355e+01 -1.9613616e+01 4.5461326e+01 
2.5197034e+01 -2.6963352e+02 4.3733720e+02 
-3.4376874e+01 -1.5208424e+01 -1.0225111e+01 
-3.1648138e+01 -1.9917355e+01 -7.1869831e+00 
-2.9746064e+01 -2.3960149e+01 -5.2905357e+00 
-2.8361306e+01 -2.7386463e+01 -3.5218656e+00 
-3.0354263e+00 -3.2588361e+02 -5.1949367e+02 
-2.7447422e+01 -2.9930576e+01 -1.8777671e+00 
-2.6941177e+01 -3.1619399e+01 -2.8942525e-01 
-2.6803248e+01 -3.2437479e+01 1.2714744e+00 
-2.7014609e+01 -3.2397023e+01 2.8194102e+00 
1.4786348e+01 1.4777783e+02 -4.2722792e+02 
-2.7576800e+01 -3.1488746e+01 4.3688287e+00 
-5.8913126e+01 -2.8831897e+01 -1.9262490e+01 
-5.5866156e+01 -2.7745747e+01 -2.7373780e+01 
-5.2606808e+01 -2.6882205e+01 -3.3907954e+01 
7.2696484e+01 1.8950439e+02 5.1014899e+02 
-6.2669942e+01 -2.8361956e+01 9.7090026e+00 
-4.9230546e+01 -2.5914960e+01 -3.8595720e+01 
-5.8752488e+01 -2.7067896e+01 1.8784192e+01 
-2.8509946e+01 -2.9735077e+01 5.9485467e+00 
-5.4946055e+01 -2.5965801e+01 2.6516184e+01 
-4.5825947e+01 -2.4739465e+01 -4.1702420e+01 
-5.1298330e+01 -2.4780152e+01 3.2574892e+01 
-4.2466174e+01 -2.3288313e+01 -4.3467960e+01 
-4.7822027e+01 -2.3435300e+01 3.7137752e+01 
-2.9853800e+01 -2.7122739e+01 7.6256093e+00 
-3.9207457e+01 -2.1567777e+01 -4.4128703e+01 
-4.4519109e+01 -2.1889402e+01 4.0373549e+01 
-3.1637759e+01 -2.3942142e+01 9.4019974e+00 
-4.1384118e+01 -2.0170772e+01 4.2434985e+01 
-3.6098381e+01 -1.9586072e+01 -4.3872724e+01 
-3.8417785e+01 -1.8292298e+01 4.3420890e+01 
-3.3016759e+01 -1.8061405e+01 -4.3363232e+01 
-3.4099744e+01 -2.0215995e+01 1.2301645e+01 
-3.5476767e+01 -1.7010695e+01 4.3963550e+01 
2.4943017e+01 -2.1998671e+02 3.6330131e+02 
-3.0678980e+01 -1.0822867e+01 -8.0904757e+00 
-2.8231209e+01 -1.5802112e+01 -5.6560229e+00 
-2.6576269e+01 -2.0076175e+01 -4.2191045e+00 
3.3626268e+00 -2.7046441e+02 -4.3788423e+02 
-2.5395335e+01 -2.3604513e+01 -2.8598566e+00 
-2.4627868e+01 -2.6163121e+01 -1.5668653e+00 
-2.4206943e+01 -2.7809077e+01 -2.8792886e-01 
-2.4094290e+01 -2.8569444e+01 9.8557613e-01 
-2.4272579e+01 -2.8459379e+01 2.2467391e+00 
-2.4744492e+01 -2.7460247e+01 3.4887812e+00 
3.5285199e+00 1.2012094e+02 -3.5596571e+02 
-5.5953760e+01 -2.4728298e+01 -1.5372124e+01 
-5.2775500e+01 -2.3759123e+01 -2.4139512e+01 
-4.9369175e+01 -2.3055784e+01 -3.1053112e+01 
5.0020534e+01 1.5544438e+02 4.3267122e+02 
-5.9441975e+01 -2.5108700e+01 7.4615873e+00 
-4.5836518e+01 -2.2271711e+01 -3.5952712e+01 
-5.5408762e+01 -2.3938363e+01 1.7005615e+01 
-2.5531244e+01 -2.5545427e+01 4.7206509e+00 
-5.1481327e+01 -2.2993473e+01 2.4993763e+01 
-4.2274336e+01 -2.1283833e+01 -3.9149175e+01 
-4.7713762e+01 -2.1972488e+01 3.1139234e+01 
-3.8772633e+01 -2.0010638e+01 -4.0946877e+01 
-4.4128742e+01 -2.0777896e+01 3.5683553e+01 
-2.6677480e+01 -2.2665391e+01 5.9934401e+00 
-4.0740899e+01 -1.9350015e+01 3.8842617e+01 
-3.5409673e+01 -1.8439984e+01 -4.1627381e+01 
-2.8224436e+01 -1.9065256e+01 7.3170542e+00 
-3.7556112e+01 -1.7703640e+01 4.0827766e+01 
-3.2253565e+01 -1.6573882e+01 -4.1453462e+01 
-3.4582517e+01 -1.5858362e+01 4.1802236e+01 
-2.9188788e+01 -1.5069002e+01 -4.1085311e+01 
-3.0428365e+01 -1.4844438e+01 9.6199570e+00 
-3.1675907e+01 -1.4528888e+01 4.2376418e+01 
2.4488573e+01 -1.7614998e+02 2.9571312e+02 
-2.6998808e+01 -6.6047994e+00 -6.1271915e+00 
-2.4892859e+01 -1.1973655e+01 -4.2949892e+00 
-2.3523802e+01 -1.6518527e+01 -3.2931697e+00 
8.5222879e+00 -2.2062718e+02 -3.6291010e+02 
-2.2563656e+01 -2.0124685e+01 -2.3018535e+00 
-2.1944221e+01 -2.2640032e+01 -1.3098833e+00 
-2.1604186e+01 -2.4205598e+01 -2.8800397e-01 
-2.1513560e+01 -2.4891094e+01 7.4950512e-01 
-2.1660621e+01 -2.4744871e+01 1.7759695e+00 
-2.2045238e+01 -2.3709548e+01 2.7643752e+00 
-5.6129075e+00 9.5308665e+01 -2.8683698e+02 
-5.3095649e+01 -2.0534793e+01 -1.1711390e+01 
-4.9799544e+01 -1.9714103e+01 -2.1149322e+01 
-4.6273314e+01 -1.9193413e+01 -2.8446859e+01 
3.0426889e+01 1.2519626e+02 3.5808835e+02 
-5.6409799e+01 -2.1696279e+01 5.2199319e+00 
-5.2253033e+01 -2.0671023e+01 1.5288593e+01 
-2.2682836e+01 -2.1709464e+01 3.7005369e+00 
-4.2605535e+01 -1.8610561e+01 -3.3539434e+01 
-4.8198540e+01 -1.9907494e+01 2.3534179e+01 
-3.8889576e+01 -1.7833369e+01 -3.6872586e+01 
-4.4296623e+01 -1.9080946e+01 2.9774054e+01 
-4.0576197e+01 -1.8074729e+01 3.4291703e+01 
-2.3613825e+01 -1.8604079e+01 4.6123796e+00 
-3.5221859e+01 -1.6775612e+01 -3.8703139e+01 
-3.7066040e+01 -1.6812969e+01 3.7363679e+01 
-3.1707930e+01 -1.5409005e+01 -3.9392839e+01 
-2.4885113e+01 -1.4561402e+01 5.5093209e+00 
-3.3790991e+01 -1.5290828e+01 3.9244646e+01 
-2.8448567e+01 -1.3711367e+01 -3.9271983e+01 
-3.0773578e+01 -1.3521847e+01 4.0172455e+01 
-2.5344057e+01 -1.2251994e+01 -3.9009387e+01 
-2.6769046e+01 -9.7438600e+00 7.2181328e+00 
-2.7871293e+01 -1.2167998e+01 4.0762343e+01 
2.3874963e+01 -1.3826326e+02 2.3487622e+02 
-2.3349006e+01 -2.6986372e+00 -4.4142364e+00 
-2.1658078e+01 -8.5890983e+00 -3.1588340e+00 
-2.0606983e+01 -1.3414094e+01 -2.5432263e+00 
1.2534424e+01 -1.7653354e+02 -2.9473280e+02 
-1.9867857e+01 -1.6999535e+01 -1.8593944e+00 
-1.9378960e+01 -1.9376511e+01 -1.1075041e+00 
-1.9100660e+01 -2.0779813e+01 -2.9105587e-01 
-1.9025077e+01 -2.1382994e+01 5.5574342e-01 
-1.9147839e+01 -2.1222363e+01 1.3933414e+00 
-1.9463986e+01 -2.0249103e+01 2.1820115e+00 
-1.2536937e+01 7.3116033e+01 -2.2047379e+02 
-5.0128508e+01 -1.6265034e+01 -8.3653879e+00 
-4.6774570e+01 -1.5646121e+01 -1.8435764e+01 
1.3984584e+01 9.8429174e+01 2.8665529e+02 
-4.3213051e+01 -1.5334089e+01 -2.6034123e+01 
-5.3470894e+01 -1.8113753e+01 3.0815427e+00 
-4.9216935e+01 -1.7266263e+01 1.3680167e+01 
-1.9969194e+01 -1.8277756e+01 2.8862522e+00 
-3.9501167e+01 -1.4957354e+01 -3.1392423e+01 
-4.5068151e+01 -1.6706928e+01 2.2179201e+01 
-3.5696106e+01 -1.4387512e+01 -3.4848148e+01 
-4.1054509e+01 -1.6094814e+01 2.8489247e+01 
-3.7198123e+01 -1.5302802e+01 3.3025231e+01 
-2.0684389e+01 -1.5066211e+01 3.5008844e+00 
-3.1888524e+01 -1.3559394e+01 -3.6849501e+01 
-3.3540579e+01 -1.4249103e+01 3.6011967e+01 
-2.8199033e+01 -1.2440245e+01 -3.7544613e+01 
-2.1647984e+01 -1.0591354e+01 4.0228752e+00 
-3.0131284e+01 -1.2909215e+01 3.7780634e+01 
-2.4773786e+01 -1.0971574e+01 -3.7442299e+01 
-2.7020229e+01 -1.1271381e+01 3.8635955e+01 
-2.1549754e+01 -9.5851834e+00 -3.7297042e+01 
-2.3137556e+01 -5.0652602e+00 5.1655684e+00 
-2.4073008e+01 -9.9184798e+00 3.9207971e+01 
2.3130728e+01 -1.0648163e+02 1.8112573e+02 
-1.9784373e+01 7.1359157e-01 -3.0493037e+00 
-1.8585038e+01 -5.8525868e+00 -2.2968090e+00 
1.5500469e+01 -1.3837829e+02 -2.3357682e+02 
-1.7862914e+01 -1.0844992e+01 -1.9811601e+00 
-1.7311493e+01 -1.4238953e+01 -1.5175745e+00 
-1.6904098e+01 -1.6300772e+01 -9.3976679e-01 
-1.6650504e+01 -1.7475406e+01 -2.8609475e-01 
-1.6575116e+01 -1.7952386e+01 3.9694169e-01 
-1.6689751e+01 -1.7832924e+01 1.0735836e+00 
-1.6974986e+01 -1.7002548e+01 1.7069190e+00 
-1.7100279e+01 5.3411564e+01 -1.5801221e+02 
-4.6687439e+01 -1.1983036e+01 -5.3957693e+00 
-4.3399281e+01 -1.1652536e+01 -1.6016654e+01 
8.2579399e-01 7.4848758e+01 2.1888201e+02 
-5.0416580e+01 -1.4384873e+01 1.1774280e+00 
-3.9966377e+01 -1.1585178e+01 -2.3847059e+01 
-4.6146319e+01 -1.3766201e+01 1.2250343e+01 
-1.7396896e+01 -1.5256987e+01 2.2488204e+00 
-4.1999607e+01 -1.3435063e+01 2.0902546e+01 
-3.6386656e+01 -1.1404876e+01 -2.9325508e+01 
-3.7960750e+01 -1.3040653e+01 2.7341394e+01 
-3.2668932e+01 -1.1005640e+01 -3.3246799e+01 
-3.4028433e+01 -1.2462582e+01 3.1872073e+01 
-1.7929201e+01 -1.2134285e+01 2.6573858e+00 
-2.8844628e+01 -1.0374621e+01 -3.5355082e+01 
-3.0238638e+01 -1.1635449e+01 3.4908071e+01 
-2.5037358e+01 -9.5110564e+00 -3.6271942e+01 
-1.8574673e+01 -7.3653048e+00 2.8952267e+00 
-2.6669554e+01 -1.0527079e+01 3.6561355e+01 
-2.1418882e+01 -8.3167182e+00 -3.6182955e+01 
-2.3407619e+01 -9.0840394e+00 3.7310754e+01 
-1.9591422e+01 -1.0020907e+00 3.5494969e+00 
-1.7973982e+01 -7.0192910e+00 -3.6078474e+01 
-2.0342096e+01 -7.7572692e+00 3.7878690e+01 
2.2233503e+01 -8.0830600e+01 1.3467728e+02 
-1.6432285e+01 3.3537429e+00 -2.1401720e+00 
-1.5786146e+01 -3.8728289e+00 -1.7317242e+00 
1.7520369e+01 -1.0635985e+02 -1.7971171e+02 
-1.5345726e+01 -8.7963494e+00 -1.5717951e+00 
-1.4889615e+01 -1.1651222e+01 -1.2223574e+00 
-1.4478058e+01 -1.3267213e+01 -7.5786611e-01 
-1.4188404e+01 -1.4128067e+01 -2.4748132e-01 
-1.4095504e+01 -1.4497283e+01 2.6735646e-01 
-1.4221602e+01 -1.4407975e+01 7.7844030e-01 
-1.4537897e+01 -1.3817675e+01 1.2769688e+00 
-1.9107002e+01 3.6221946e+01 -1.0100321e+02 
-4.2221875e+01 -7.8406169e+00 -3.0985326e+00 
-3.9194276e+01 -7.9121062e+00 -1.3904749e+01 
-8.8441981e+00 5.4243657e+01 1.5578855e+02 
-4.6887001e+01 -1.0585294e+01 -3.7725080e-01 
-4.2752485e+01 -1.0275566e+01 1.1063200e+01 
-1.4962044e+01 -1.2446897e+01 1.7188004e+00 
-3.6125532e+01 -8.1321925e+00 -2.1714120e+01 
-3.8784505e+01 -1.0201960e+01 1.9776442e+01 
-3.2945471e+01 -8.1306755e+00 -2.7616416e+01 
-3.4902435e+01 -1.0013278e+01 2.6174932e+01 
-2.9596305e+01 -7.8497518e+00 -3.1643759e+01 
-3.1049176e+01 -9.6109817e+00 3.1026554e+01 
-1.5404451e+01 -9.7903607e+00 2.0316853e+00 
-2.6072369e+01 -7.3388783e+00 -3.4698337e+01 
-2.7242617e+01 -8.9851767e+00 3.4035800e+01 
-2.2383147e+01 -6.6658044e+00 -3.5596703e+01 
-1.5779386e+01 -4.9970272e+00 2.1346848e+00 
-2.3556853e+01 -8.1238593e+00 3.5785345e+01 
-1.8691849e+01 -5.7376351e+00 -3.5704180e+01 
-2.0117275e+01 -6.9262275e+00 3.6425218e+01 
-1.6260920e+01 2.1526949e+00 2.4661618e+00 
-1.4992390e+01 -4.4842138e+00 -3.5884417e+01 
-1.6840692e+01 -5.6391910e+00 3.6907031e+01 
2.0989541e+01 -6.1126239e+01 9.5642045e+01 
-1.3572637e+01 5.2381712e+00 -1.7634953e+00 
-1.3433822e+01 -2.5896001e+00 -1.3951888e+00 
1.8662215e+01 -8.0535817e+01 -1.3329729e+02 
-1.3109598e+01 -6.7687018e+00 -1.2048262e+00 
-1.2577984e+01 -8.8273416e+00 -8.6192887e-01 
-1.2026142e+01 -9.9262133e+00 -4.8311874e-01 
-1.1639353e+01 -1.0583489e+01 -1.4437736e-01 
-1.1511569e+01 -1.0873856e+01 1.6359420e-01 
-1.1667571e+01 -1.0789014e+01 4.6977207e-01 
-1.2076195e+01 -1.0332394e+01 8.0274059e-01 
-1.8358092e+01 2.1800502e+01 -5.2614018e+01 
-3.5947101e+01 -4.0904030e+00 -1.3142540e+00 
-1.4760858e+01 3.6544878e+01 9.8803641e+01 
-4.2327666e+01 -6.8756956e+00 -1.2433034e+00 
-3.3484763e+01 -4.6853867e+00 -1.2067513e+01 
-3.8568842e+01 -6.9778333e+00 1.0176534e+01 
-1.2638128e+01 -9.4219463e+00 1.1707080e+00 
-3.1051880e+01 -5.2127581e+00 -1.9962114e+01 
-3.5037297e+01 -7.1959653e+00 1.8670525e+01 
-2.8541531e+01 -5.3714570e+00 -2.5807147e+01 
-3.1570036e+01 -7.1877031e+00 2.5314137e+01 
-2.5911882e+01 -5.1767056e+00 -3.0919701e+01 
-2.8085112e+01 -6.9109243e+00 3.0101881e+01 
-1.3160330e+01 -7.5158144e+00 1.4949607e+00 
-2.3138664e+01 -4.7563374e+00 -3.4025256e+01 
-2.4538121e+01 -6.4106044e+00 3.3907358e+01 
-2.0188523e+01 -4.1725196e+00 -3.6578708e+01 
-1.3434060e+01 -3.4203079e+00 1.6549417e+00 
-2.0962431e+01 -5.7441562e+00 3.5500821e+01 
-1.6936673e+01 -3.3890769e+00 -3.6409057e+01 
-1.7451572e+01 -4.7942921e+00 3.6206120e+01 
-1.3423742e+01 4.4097081e+00 1.9759066e+00 
-1.3275908e+01 -1.9866627e+00 -3.6775062e+01 
-1.3927103e+01 -3.4981982e+00 3.6848428e+01 
1.8652444e+01 -4.5936491e+01 6.2909819e+01 
-1.1721041e+01 6.4256114e+00 -1.7900170e+00 
1.8841316e+01 -6.0746195e+01 -9.4400125e+01 
-1.1749025e+01 -6.8935444e-01 -1.0291355e+00 
-1.1152849e+01 -3.6180918e+00 -6.3396613e-01 
-1.0244990e+01 -4.9733058e+00 -2.6688507e-01 
-9.4410290e+00 -5.9688405e+00 -5.0712047e-02 
-8.9231891e+00 -6.7634224e+00 5.1071418e-02 
-8.7532191e+00 -7.0965361e+00 8.5340903e-02 
-8.9455805e+00 -6.8937341e+00 1.1847079e-01 
-9.4782806e+00 -6.2266429e+00 2.1641854e-01 
-1.4664558e+01 1.0642489e+01 -1.5632599e+01 
-1.6643109e+01 2.1896815e+01 5.0927019e+01 
-2.7051144e+01 -1.2035054e+00 -9.0601453e-01 
-3.5973672e+01 -3.5096086e+00 -1.5754307e+00 
-2.5433117e+01 -2.3074368e+00 -1.0759453e+01 
-3.2932007e+01 -4.1312061e+00 9.5640844e+00 
-1.0285385e+01 -5.3541110e+00 4.2596681e-01 
-2.3893347e+01 -3.0445811e+00 -1.7624024e+01 
-3.0118926e+01 -4.6509759e+00 1.7946488e+01 
-2.2192387e+01 -3.3107814e+00 -2.4862412e+01 
-2.7361854e+01 -4.8023844e+00 2.4337383e+01 
-2.0474724e+01 -3.2822973e+00 -3.0674156e+01 
-2.4570605e+01 -4.6132290e+00 3.0037436e+01 
-1.1182557e+01 -4.1158258e+00 7.8461845e-01 
-1.8902072e+01 -3.0630063e+00 -3.5412734e+01 
-2.1752347e+01 -4.2136707e+00 3.3729558e+01 
-1.1741711e+01 -1.2671258e+00 1.1711063e+00 
-1.7445549e+01 -2.6928759e+00 -3.7590777e+01 
-1.8839451e+01 -3.6461063e+00 3.6833454e+01 
-1.5888630e+01 -2.0226442e+00 -4.0680629e+01 
-1.5751126e+01 -2.8434436e+00 3.7119471e+01 
-1.1591442e+01 5.8533983e+00 1.9279584e+00 
-1.3724377e+01 -4.1493102e-02 -4.1736737e+01 
-1.2264742e+01 -1.3529701e+00 3.7799672e+01 
1.3455699e+01 -3.2335483e+01 3.4647909e+01 
1.7468589e+01 -4.5554254e+01 -6.1842628e+01 
-1.1727576e+01 1.1210386e+01 -1.5213935e+00 
-1.0725985e+01 4.9920307e+00 7.8911355e-02 
-9.1031843e+00 2.4876241e+00 5.3882850e-01 
-7.6252189e+00 5.9975162e-01 6.5789787e-01 
-6.5849413e+00 -1.5343111e+00 5.6511846e-01 
-5.9865008e+00 -2.9644090e+00 3.3153521e-01 
-5.7995940e+00 -3.4854667e+00 3.3576113e-02 
-6.0011748e+00 -3.0219665e+00 -2.6561585e-01 
-6.6051444e+00 -1.6375014e+00 -5.0349810e-01 
-1.4356319e+01 1.0672387e+01 1.4725535e+01 
-8.3893467e+00 3.4466014e+00 4.5277119e+00 
-2.7003786e+01 -9.3873915e-01 -6.0936269e-01 
-1.4181309e+01 2.5422662e-02 -1.8335491e+00 
-2.5004617e+01 -2.0528719e+00 9.4299190e+00 
-7.6331424e+00 4.6897620e-01 -6.0556897e-01 
-1.4148227e+01 -9.4787478e-01 -8.3082783e+00 
-2.3206031e+01 -2.7767590e+00 1.6590202e+01 
-1.3471116e+01 -1.5349404e+00 -1.7044235e+01 
-2.1285702e+01 -3.0349297e+00 2.4221659e+01 
-1.2507839e+01 -1.8820827e+00 -2.4504105e+01 
-1.9420495e+01 -3.0132082e+00 3.0469837e+01 
-9.0811801e+00 2.3379405e+00 -5.0017581e-01 
-1.1700391e+01 -2.1423567e+00 -3.1213738e+01 
-1.7754474e+01 -2.8144892e+00 3.5657397e+01 
-1.1279184e+01 -2.3732670e+00 -3.7380203e+01 
-1.0656329e+01 4.8072060e+00 -5.0420419e-02 
-1.6283520e+01 -2.4728681e+00 3.8263042e+01 
-1.1405917e+01 -2.5954084e+00 -4.3566970e+01 
-1.4750228e+01 -1.8077692e+00 4.1723266e+01 
-1.2154888e+01 -2.9488698e+00 -4.7653494e+01 
-1.1547532e+01 1.1001463e+01 1.5776136e+00 
-1.2699883e+01 2.7280797e-01 4.2991129e+01 
-1.3994830e+01 -2.8703963e+00 -5.5562238e+01 
1.2977043e+01 -3.1998495e+01 -3.3724926e+01 
1.1358879e+00 -8.8432256e+00 2.0220795e+00 
-1.2350397e+01 2.8204018e+01 3.0630816e+00 
-8.3081030e+00 1.9423072e+01 2.7910797e+00 
-5.7216424e+00 1.2669281e+01 2.2244033e+00 
-4.1245380e+00 6.4223845e+00 1.7184950e+00 
-3.1960137e+00 2.2685805e+00 1.1645487e+00 
-2.7191661e+00 -8.7715936e-02 5.8962783e-01 
-2.5740325e+00 -8.5020013e-01 6.8380573e-03 
-2.7253027e+00 -8.9499160e-02 -5.7710694e-01 
-3.2007078e+00 2.2942111e+00 -1.1560437e+00 
-8.4576610e+00 3.4578889e+00 -4.7350678e+00 
-1.4113066e+01 8.1960483e-02 1.3837781e+00 
6.6018345e+01 6.0372067e+01 -2.0061558e+02 
-4.5161376e+01 1.8147926e+02 3.4352805e+02 
-1.3919063e+01 -8.8463864e-01 7.9113852e+00 
-4.1090205e+00 6.5389445e+00 -1.7188511e+00 
-4.9810892e+02 2.5765971e+02 1.9126701e+02 
-1.3073370e+01 -1.4628688e+00 1.6837560e+01 
-1.0161473e+03 2.6094953e+02 1.0996667e+02 
-1.1987621e+01 -1.8080168e+00 2.4570769e+01 
-1.5425927e+03 2.4024355e+02 7.2604031e+01 
-1.1085580e+01 -2.0727839e+00 3.1612557e+01 
-5.6473074e+00 1.2980076e+01 -2.2436107e+00 
-2.0770280e+03 2.0360993e+02 5.4265170e+01 
-1.0580604e+01 -2.3153510e+00 3.8165747e+01 
-2.6252545e+03 1.5393802e+02 5.2477415e+01 
-8.1198072e+00 2.0052749e+01 -2.8433905e+00 
-1.0610749e+01 -2.5586679e+00 4.4800110e+01 
-3.2038621e+03 9.5116057e+01 7.7071501e+01 
-1.1262062e+01 -2.9405945e+00 4.9386732e+01 
-3.8432193e+03 2.6870704e+01 1.8151422e+02 
-1.1968624e+01 2.9231398e+01 -3.1263069e+00 
-1.2959778e+01 -2.8331503e+00 5.7818290e+01 
-4.7461688e+03 -1.6352934e+01 7.0261488e+02 
1.4913770e+00 -8.0999172e+00 -7.6064978e-01 
-5.3985121e+03 -1.5453109e+03 1.3255565e+03 
-4.6294405e+03 -7.0835878e+02 -5.5180545e+00 
-3.5790539e+03 -1.5799870e+02 -2.7292889e+01 
-2.7868975e+03 -5.2849570e+01 -7.4254486e+01 
-2.0566524e+03 -2.0966356e+01 -1.1201520e+02 
-1.3586998e+03 -8.5889335e+00 -1.4104123e+02 
-6.7604920e+02 -3.2124300e+00 -1.5813371e+02 
-2.6512552e-01 1.4092730e-01 -1.6402738e+02 
6.7545726e+02 4.3985047e+00 -1.5857122e+02 
1.3579064e+03 1.2702436e+01 -1.4200338e+02 
-6.9201380e+01 -5.9663295e+01 -2.0340858e+02 
4.3163070e+01 -1.8141845e+02 3.4222175e+02 
4.9515006e+02 -2.5784863e+02 1.9987171e+02 
2.0554663e+03 3.0790384e+01 -1.1368911e+02 
1.0130811e+03 -2.6126932e+02 1.2761378e+02 
1.5396674e+03 -2.4073646e+02 9.8097699e+01 
2.0742003e+03 -2.0443268e+02 8.6985446e+01 
2.7849756e+03 7.3065353e+01 -7.6974540e+01 
2.6223749e+03 -1.5534055e+02 9.2828547e+01 
3.5759485e+03 1.9822352e+02 -3.1643121e+01 
3.2006454e+03 -9.7487070e+01 1.2735383e+02 
3.8394094e+03 -3.0834185e+01 2.4848844e+02 
4.6244105e+03 7.9045283e+02 -1.3979803e+01 
4.7413491e+03 8.4360564e+00 8.0206822e+02 
5.4128720e+03 1.6090142e+03 1.3934778e+03 
ROTATION 3 3535  float
-4.6298675e-01 1.6368364e-01 4.3295075e-02 
-4.6225302e-01 1.6392555e-01 4.3308922e-02 
-4.6402770e-01 1.6324088e-01 4.3280823e-02 
-4.6316864e-01 1.6265429e-01 4.3295024e-02 
-4.6040159e-01 1.6431689e-01 4.3262307e-02 
-4.6726299e-01 1.6274457e-01 4.3331646e-02 
-4.6635155e-01 1.6130847e-01 4.3338867e-02 
-4.6133656e-01 1.6192569e-01 4.3249505e-02 
-4.6439690e-01 1.5948315e-01 4.3285309e-02 
-4.5741947e-01 1.6430209e-01 4.3162172e-02 
-4.7321349e-01 1.6232311e-01 4.3457696e-02 
-4.7226681e-01 1.5983499e-01 4.3416508e-02 
-4.5839855e-01 1.6082089e-01 4.3178030e-02 
-4.6989571e-01 1.5666232e-01 4.3343111e-02 
-4.6121589e-01 1.5721109e-01 4.3210387e-02 
-4.5340421e-01 1.6375878e-01 4.3042856e-02 
-4.8313607e-01 1.6222976e-01 4.3650467e-02 
-4.8219703e-01 1.5782982e-01 4.3522941e-02 
-4.5438998e-01 1.5929324e-01 4.3087509e-02 
-4.6591392e-01 1.5302834e-01 4.3257919e-02 
-4.5685087e-01 1.5463204e-01 4.3122212e-02 
-4.7810058e-01 1.5264207e-01 4.3417439e-02 
-4.6065688e-01 1.4935468e-01 4.3166049e-02 
-5.0523038e-01 1.6118362e-01 4.3893069e-02 
-4.4850256e-01 1.6272708e-01 4.2922875e-02 
-4.7222637e-01 1.4754975e-01 4.3310187e-02 
-4.4945292e-01 1.5744291e-01 4.2988717e-02 
-4.9654740e-01 1.5280114e-01 4.3649713e-02 
-4.8794269e-01 1.4576137e-01 4.3483318e-02 
-4.5152052e-01 1.5193827e-01 4.3027543e-02 
-4.6544770e-01 1.4296334e-01 4.3214541e-02 
-4.5452040e-01 1.4586743e-01 4.3073354e-02 
-4.7927874e-01 1.4002623e-01 4.3363417e-02 
-5.2621728e-01 1.4468996e-01 4.4263457e-02 
-4.4289013e-01 1.6132315e-01 4.2809518e-02 
-5.0996824e-01 1.4065972e-01 4.3728822e-02 
-4.4377733e-01 1.5540408e-01 4.2887739e-02 
-4.4547250e-01 1.4927050e-01 4.2931093e-02 
-4.9699428e-01 1.3543599e-01 4.3538681e-02 
-4.7053056e-01 1.3503568e-01 4.3256763e-02 
-4.5810739e-01 1.3888616e-01 4.3119505e-02 
-4.4779256e-01 1.4265175e-01 4.2978831e-02 
-4.8562502e-01 1.3015053e-01 4.3381341e-02 
-5.3271175e-01 1.2759656e-01 4.4498369e-02 
-4.3674053e-01 1.5967681e-01 4.2703911e-02 
-4.6175138e-01 1.3074102e-01 4.3166047e-02 
-5.1706973e-01 1.2586085e-01 4.3814204e-02 
-4.3755147e-01 1.5329295e-01 4.2787809e-02 
-4.7496013e-01 1.2542736e-01 4.3294632e-02 
-4.5044281e-01 1.3530777e-01 4.3027100e-02 
-4.3891988e-01 1.4671560e-01 4.2834223e-02 
-5.0281201e-01 1.2247773e-01 4.3443205e-02 
-4.4068733e-01 1.3973866e-01 4.2884315e-02 
-4.8979720e-01 1.1835683e-01 4.3385136e-02 
-4.6479352e-01 1.2136756e-01 4.3211834e-02 
-4.5301932e-01 1.2708357e-01 4.3075894e-02 
-5.3261745e-01 1.1183370e-01 4.5530247e-02 
-4.3020636e-01 1.5790092e-01 4.2603926e-02 
-4.7777562e-01 1.1438681e-01 4.3330070e-02 
-5.1814048e-01 1.1123011e-01 4.3249131e-02 
-4.3093777e-01 1.5119516e-01 4.2689609e-02 
-4.4261602e-01 1.3219474e-01 4.2934201e-02 
-5.0427119e-01 1.0874616e-01 4.3334844e-02 
-4.3203183e-01 1.4432235e-01 4.2738011e-02 
-4.5505386e-01 1.1796035e-01 4.3121790e-02 
-4.3336096e-01 1.3712910e-01 4.2789685e-02 
-4.9083790e-01 1.0550317e-01 4.3372319e-02 
-4.4440205e-01 1.2398969e-01 4.2983647e-02 
-4.6657750e-01 1.1094896e-01 4.3246320e-02 
-4.7824841e-01 1.0246635e-01 4.3311449e-02 
-4.3474042e-01 1.2949944e-01 4.2840606e-02 
-5.2616076e-01 9.7582825e-02 4.5946296e-02 
-4.2341225e-01 1.5608200e-01 4.2507394e-02 
-5.1451854e-01 9.8319689e-02 4.2324620e-02 
-4.2406679e-01 1.4916755e-01 4.2593029e-02 
-5.0139180e-01 9.5227290e-02 4.3135297e-02 
-4.4571117e-01 1.1513044e-01 4.3033791e-02 
-4.5609641e-01 1.0808937e-01 4.3171111e-02 
-4.2493705e-01 1.4211292e-01 4.2642484e-02 
-4.6660172e-01 9.9884831e-02 4.3283268e-02 
-4.3594464e-01 1.2137771e-01 4.2891766e-02 
-4.8832756e-01 9.2567745e-02 4.3210193e-02 
-4.2592495e-01 1.3480632e-01 4.2695123e-02 
-4.7603511e-01 9.0442864e-02 4.3391198e-02 
-4.2689112e-01 1.2716840e-01 4.2747155e-02 
-4.4623539e-01 1.0574413e-01 4.3084939e-02 
-4.5581361e-01 9.7770563e-02 4.3215139e-02 
-5.1427704e-01 9.0158560e-02 3.1346829e-02 
-4.1645525e-01 1.5428069e-01 4.2412303e-02 
-4.3673606e-01 1.1278361e-01 4.2942746e-02 
-5.0598711e-01 8.5479351e-02 3.8179073e-02 
-5.0046191e-01 7.6178460e-02 2.4698393e-02 
-4.1703892e-01 1.4724375e-01 4.2497519e-02 
-4.9289517e-01 7.9810084e-02 2.7886032e-02 
-4.9397581e-01 8.2317356e-02 4.1426684e-02 
-4.8990218e-01 7.4789332e-02 1.7640335e-02 
-4.1773026e-01 1.4009150e-01 4.2547483e-02 
-4.8376140e-01 7.9070867e-02 3.0786518e-02 
-4.8265408e-01 7.7715493e-02 2.0193991e-02 
-4.2767068e-01 1.1916779e-01 4.2799092e-02 
-4.6464327e-01 8.8771944e-02 4.3402766e-02 
-4.7488810e-01 7.7692953e-02 2.2109069e-02 
-4.8233522e-01 8.0292968e-02 4.2655489e-02 
-4.8096060e-01 7.4709956e-02 1.0817253e-02 
-4.1845655e-01 1.3274412e-01 4.2600849e-02 
-4.7418222e-01 7.6115467e-02 1.2934964e-02 
-4.7426058e-01 7.8604211e-02 3.2249807e-02 
-4.4575897e-01 9.6056921e-02 4.3134064e-02 
-4.6713323e-01 7.6619513e-02 1.4561011e-02 
-4.6676539e-01 7.7481043e-02 2.3479273e-02 
-4.3690515e-01 1.0382267e-01 4.2996008e-02 
-4.7125484e-01 7.9000338e-02 4.2998354e-02 
-4.7313192e-01 7.4120598e-02 4.3740194e-03 
-4.1911524e-01 1.2514830e-01 4.2653610e-02 
-4.6490158e-01 7.7870313e-02 3.3011936e-02 
-4.6675721e-01 7.5385517e-02 6.2628463e-03 
-4.5407927e-01 8.7454117e-02 4.3350020e-02 
-4.2809610e-01 1.1082904e-01 4.2851203e-02 
-4.5988857e-01 7.6661869e-02 1.5760144e-02 
-4.5859646e-01 7.7207265e-02 2.4363465e-02 
-4.6021869e-01 7.5773131e-02 7.6925019e-03 
-4.0940838e-01 1.5253602e-01 4.2317738e-02 
-4.0992873e-01 1.4544018e-01 4.2402557e-02 
-4.5255485e-01 7.6543152e-02 1.6636565e-02 
-4.6084845e-01 7.8121395e-02 4.3000572e-02 
-4.6605743e-01 7.3877274e-02 -1.7437584e-03 
-4.1958767e-01 1.1728790e-01 4.2706428e-02 
-4.1047921e-01 1.3825084e-01 4.2452823e-02 
-4.5356045e-01 7.5998715e-02 8.7724433e-03 
-4.5580707e-01 7.7254311e-02 3.3445250e-02 
-4.6002874e-01 7.4837714e-02 -1.1270673e-05 
-4.3631481e-01 9.4664238e-02 4.3043463e-02 
-4.5050273e-01 7.6833778e-02 2.4980715e-02 
-4.5389161e-01 7.5236424e-02 1.3057731e-03 
-4.4421872e-01 8.6406551e-02 4.3264424e-02 
-4.2802588e-01 1.0223819e-01 4.2904650e-02 
-4.1100754e-01 1.3091231e-01 4.2506693e-02 
-4.4682467e-01 7.6020756e-02 9.5966332e-03 
-4.4521014e-01 7.6366358e-02 1.7303168e-02 
-4.4767086e-01 7.5481917e-02 2.3016748e-03 
-4.5103745e-01 7.7486068e-02 4.2889209e-02 
-4.5949348e-01 7.3669295e-02 -7.5606819e-03 
-4.1975692e-01 1.0918777e-01 4.2759173e-02 
-4.1143998e-01 1.2338962e-01 4.2560156e-02 
-4.4699466e-01 7.6731576e-02 3.3731824e-02 
-4.5377228e-01 7.4494424e-02 -5.9324143e-03 
-4.4251963e-01 7.6479397e-02 2.5460471e-02 
-4.4797431e-01 7.4850666e-02 -4.6970744e-03 
-4.4138444e-01 7.5592809e-02 3.0672726e-03 
-4.4004617e-01 7.5946806e-02 1.0250773e-02 
-4.0232496e-01 1.5087043e-01 4.2223122e-02 
-4.3788710e-01 7.6137095e-02 1.7851833e-02 
-4.3493941e-01 8.5562395e-02 4.3169572e-02 
-4.0279000e-01 1.4376129e-01 4.2307766e-02 
-4.4210994e-01 7.5116156e-02 -3.7688829e-03 
-4.2737449e-01 9.3520621e-02 4.2950602e-02 
-4.1169256e-01 1.1567604e-01 4.2613716e-02 
-4.0323090e-01 1.3657715e-01 4.2358236e-02 
-4.5326475e-01 7.3543304e-02 -1.3101945e-02 
-4.4174382e-01 7.7008330e-02 4.2748537e-02 
-4.1952837e-01 1.0091701e-01 4.2813016e-02 
-4.3845413e-01 7.6297715e-02 3.3946968e-02 
-4.3504520e-01 7.5598907e-02 3.6811641e-03 
-4.4782933e-01 7.4266434e-02 -1.1543961e-02 
-4.3324502e-01 7.5821608e-02 1.0803946e-02 
-4.3618423e-01 7.5259376e-02 -3.0620685e-03 
-4.4233685e-01 7.4596906e-02 -1.0372073e-02 
-4.0361120e-01 1.2928018e-01 4.2412560e-02 
-4.3465773e-01 7.6148039e-02 2.5865265e-02 
-4.1168471e-01 1.0779448e-01 4.2667243e-02 
-4.3678388e-01 7.4855425e-02 -9.5060220e-03 
-4.3059940e-01 7.5900629e-02 1.8334351e-02 
-4.0387907e-01 1.2184828e-01 4.2466657e-02 
-4.2866219e-01 7.5540167e-02 4.2047175e-03 
-4.3020030e-01 7.5316908e-02 -2.5006541e-03 
-4.2613721e-01 8.4869367e-02 4.3074576e-02 
-4.4723393e-01 7.3468765e-02 -1.8375709e-02 
-4.3288807e-01 7.6634934e-02 4.2609114e-02 
-4.1884988e-01 9.2567261e-02 4.2857959e-02 
-4.3016646e-01 7.5932308e-02 3.4120909e-02 
-4.3116690e-01 7.5017729e-02 -8.8611833e-03 
-4.2643214e-01 7.5660198e-02 1.1300874e-02 
-4.4207891e-01 7.4133481e-02 -1.6862902e-02 
-4.2692081e-01 7.5848698e-02 2.6221199e-02 
-4.3687831e-01 7.4440548e-02 -1.5747286e-02 
-4.0397617e-01 1.1428036e-01 4.2521022e-02 
-3.9524291e-01 1.4929441e-01 4.2128301e-02 
-4.1135398e-01 9.9799820e-02 4.2721704e-02 
-3.9566046e-01 1.4220374e-01 4.2212852e-02 
-4.2416142e-01 7.5306774e-02 -2.0242471e-03 
-3.9601694e-01 1.3505341e-01 4.2263507e-02 
-4.2335647e-01 7.5664628e-02 1.8774525e-02 
-4.3161429e-01 7.4689157e-02 -1.4946809e-02 
-4.2224227e-01 7.5439774e-02 4.6799762e-03 
-4.2548480e-01 7.5100186e-02 -8.3603505e-03 
-3.9628777e-01 1.2781861e-01 4.2318244e-02 
-4.2627656e-01 7.4851363e-02 -1.4371945e-02 
-4.1961663e-01 7.5482913e-02 1.1764873e-02 
-4.0384786e-01 1.0659650e-01 4.2575445e-02 
-4.4128559e-01 7.3445263e-02 -2.3376811e-02 
-4.2440286e-01 7.6331267e-02 4.2479140e-02 
-4.1772740e-01 8.4287465e-02 4.2982689e-02 
-4.2211076e-01 7.5618324e-02 3.4265632e-02 
-4.3642195e-01 7.4079391e-02 -2.1890097e-02 
-4.3151615e-01 7.4372447e-02 -2.0832418e-02 
-4.1973963e-01 7.5121816e-02 -7.9411946e-03 
-4.1807205e-01 7.5249376e-02 -1.5902516e-03 
-4.1066963e-01 9.1758081e-02 4.2766704e-02 
-4.1931005e-01 7.5576519e-02 2.6538586e-02 
-3.9643741e-01 1.2048614e-01 4.2372981e-02 
-4.2086345e-01 7.4946463e-02 -1.3940206e-02 
-4.1579283e-01 7.5310034e-02 5.1311436e-03 
-4.1616714e-01 7.5435945e-02 1.9181394e-02 
-4.2653390e-01 7.4600259e-02 -2.0109711e-02 
-4.0345368e-01 9.8840051e-02 4.2630933e-02 
-3.9642622e-01 1.1305823e-01 4.2428189e-02 
-3.7654621e-01 9.4522724e-02 -4.2792590e-02 
-3.8818842e-01 1.4781031e-01 4.2033158e-02 
-3.8856570e-01 1.4075952e-01 4.2117593e-02 
-3.7692983e-01 9.4204605e-02 -4.2789766e-02 
-3.7620788e-01 9.4846056e-02 -4.2795494e-02 
-4.2146017e-01 7.4754584e-02 -1.9618533e-02 
-4.1280850e-01 7.5296635e-02 1.2205428e-02 
-4.1393606e-01 7.5095281e-02 -7.5591161e-03 
-3.7635671e-01 9.4245822e-02 -4.2792453e-02 
-4.1537941e-01 7.4984831e-02 -1.3585432e-02 
-3.7800684e-01 9.3591551e-02 -4.2838265e-02 
-3.7550490e-01 9.5701067e-02 -4.2749631e-02 
-4.3531462e-01 7.3445372e-02 -2.8082221e-02 
-4.1623159e-01 7.6073234e-02 4.2359299e-02 
-3.8885770e-01 1.3366161e-01 4.2168406e-02 
-4.1193845e-01 7.5157933e-02 -1.1727128e-03 
-4.1426615e-01 7.5341097e-02 3.4386385e-02 
-3.7549874e-01 9.4759986e-02 -4.2756400e-02 
-3.7715655e-01 9.3416726e-02 -4.2827264e-02 
-4.3077257e-01 7.4118297e-02 -2.6610153e-02 
-4.0964244e-01 8.3786590e-02 4.2894146e-02 
-4.2617976e-01 7.4382391e-02 -2.5623760e-02 
-3.7609062e-01 9.3666520e-02 -4.2787435e-02 
-4.1182474e-01 7.5326102e-02 2.6821730e-02 
-3.8904849e-01 1.2650107e-01 4.2223534e-02 
-3.7967171e-01 9.2703340e-02 -4.2930016e-02 
-3.7445596e-01 9.6890446e-02 -4.2671120e-02 
-3.9621789e-01 1.0555195e-01 4.2483668e-02 
-4.1629697e-01 7.4847753e-02 -1.9266081e-02 
-3.7434258e-01 9.5639771e-02 -4.2704902e-02 
-3.7856931e-01 9.2343496e-02 -4.2880567e-02 
-4.0932297e-01 7.5161714e-02 5.5691822e-03 
-4.0277653e-01 9.1057704e-02 4.2676791e-02 
-4.0903955e-01 7.5214552e-02 1.9557645e-02 
-3.7478103e-01 9.4275795e-02 -4.2735801e-02 
-3.7727741e-01 9.2379188e-02 -4.2830811e-02 
-4.2148230e-01 7.4588236e-02 -2.5002402e-02 
-3.8911447e-01 1.1927084e-01 4.2278903e-02 
-3.8192399e-01 9.1566488e-02 -4.3047763e-02 
-3.7309607e-01 9.8325829e-02 -4.2585431e-02 
-4.0983191e-01 7.4978642e-02 -1.3260967e-02 
-4.0808061e-01 7.5032120e-02 -7.1863766e-03 
-3.7290325e-01 9.6787255e-02 -4.2643872e-02 
-3.8057693e-01 9.1028758e-02 -4.2946705e-02 
-3.7578154e-01 9.2761263e-02 -4.2774616e-02 
-3.7322525e-01 9.5164113e-02 -4.2678669e-02 
-4.1666539e-01 7.4715351e-02 -2.4614935e-02 
-3.7905219e-01 9.0877126e-02 -4.2880456e-02 
-4.0601842e-01 7.5106087e-02 1.2624756e-02 
-4.1105508e-01 7.4893351e-02 -1.8981345e-02 
-4.0576871e-01 7.5040919e-02 -7.5890921e-04 
-3.9578691e-01 9.8001517e-02 4.2540478e-02 
-3.8478507e-01 9.0186003e-02 -4.3177251e-02 
-3.7144660e-01 9.9935566e-02 -4.2505136e-02 
-4.2921719e-01 7.3550624e-02 -3.2448551e-02 
-4.0832778e-01 7.5843971e-02 4.2247824e-02 
-3.8902937e-01 1.1197496e-01 4.2334995e-02 
-3.7407636e-01 9.3423640e-02 -4.2717777e-02 
-3.7734843e-01 9.1066367e-02 -4.2813833e-02 
-4.0661281e-01 7.5089068e-02 3.4486040e-02 
-3.7119708e-01 9.8126790e-02 -4.2581153e-02 
-4.2505461e-01 7.4241574e-02 -3.0982344e-02 
-3.8319066e-01 8.9470316e-02 -4.3016538e-02 
-4.1174259e-01 7.4797610e-02 -2.4352769e-02 
-3.8117893e-01 1.4641520e-01 4.1937572e-02 
-4.2080757e-01 7.4507477e-02 -3.0104386e-02 
-4.0284316e-01 7.5000013e-02 5.9968494e-03 
-4.0182874e-01 8.3344264e-02 4.2808120e-02 
-3.8142165e-01 8.9145502e-02 -4.2924828e-02 
-3.7143100e-01 9.6256569e-02 -4.2620894e-02 
-4.0446239e-01 7.5091193e-02 2.7073066e-02 
-3.8152242e-01 1.3941815e-01 4.2021773e-02 
-3.7546613e-01 9.1535563e-02 -4.2755528e-02 
-4.0422918e-01 7.4936068e-02 -1.2938242e-02 
-3.8176555e-01 1.3238409e-01 4.2072705e-02 
-3.7216358e-01 9.4295980e-02 -4.2663377e-02 
-4.0218095e-01 7.4940339e-02 -6.8089343e-03 
-3.7948955e-01 8.9166892e-02 -4.2848453e-02 
-4.1640012e-01 7.4633917e-02 -2.9624993e-02 
-4.0198030e-01 7.4999006e-02 1.9903830e-02 
-4.0574702e-01 7.4899156e-02 -1.8716994e-02 
-3.8876976e-01 1.0462771e-01 4.2391629e-02 
-3.8829199e-01 8.8558163e-02 -4.3327691e-02 
-3.6952553e-01 1.0165828e-01 -4.2435044e-02 
-3.9512477e-01 9.0439171e-02 4.2587758e-02 
-3.6923811e-01 9.9594004e-02 -4.2520851e-02 
-3.8644011e-01 8.7655714e-02 -4.3067667e-02 
-3.8189858e-01 1.2530410e-01 4.2128185e-02 
-4.0673562e-01 7.4843516e-02 -2.4141588e-02 
-3.6940688e-01 9.7487308e-02 -4.2565186e-02 
-3.8440806e-01 8.7164319e-02 -4.2957810e-02 
-3.9957223e-01 7.4904716e-02 -3.4516090e-04 
-3.7340649e-01 9.2216391e-02 -4.2702900e-02 
-3.7740441e-01 8.9472563e-02 -4.2786496e-02 
-4.1183515e-01 7.4722270e-02 -2.9365242e-02 
-3.9925659e-01 7.4912509e-02 1.3021981e-02 
-3.7004652e-01 9.5312183e-02 -4.2611574e-02 
-3.8190643e-01 1.1817523e-01 4.2184168e-02 
-3.8222183e-01 8.7037067e-02 -4.2863920e-02 
-4.2289173e-01 7.3529279e-02 -3.6377627e-02 
-4.0065332e-01 7.5631527e-02 4.2142563e-02 
-3.9857903e-01 7.4863453e-02 -1.2603027e-02 
-4.1920655e-01 7.4664304e-02 -3.4965457e-02 
-3.9249411e-01 8.6673608e-02 -4.3421378e-02 
-3.6734775e-01 1.0344107e-01 -4.2375182e-02 
-4.0038342e-01 7.4870464e-02 -1.8445655e-02 
-3.9913246e-01 7.4853219e-02 3.4566674e-02 
-3.8832026e-01 9.7256206e-02 4.2449951e-02 
-3.9636411e-01 7.4828250e-02 6.4126489e-03 
-3.7517078e-01 8.9990519e-02 -4.2738190e-02 
-3.6703818e-01 1.0113377e-01 -4.2464389e-02 
-4.0715205e-01 7.4789596e-02 -2.9200664e-02 
-3.9037218e-01 8.5576412e-02 -4.3114848e-02 
-3.9721901e-01 7.4866290e-02 2.7294622e-02 
-3.7116913e-01 9.3041757e-02 -4.2655543e-02 
-4.1534527e-01 7.4694864e-02 -3.4268278e-02 
-3.7990547e-01 8.7206831e-02 -4.2806792e-02 
-3.8804996e-01 8.4907671e-02 -4.2939921e-02 
-3.9624537e-01 7.4825365e-02 -6.4224615e-03 
-3.6716034e-01 9.8799510e-02 -4.2512015e-02 
-4.0166299e-01 7.4854405e-02 -2.3936973e-02 
-3.9424371e-01 8.2943729e-02 4.2723480e-02 
-3.8177236e-01 1.1100246e-01 4.2241151e-02 
-4.1121483e-01 7.4734098e-02 -3.3994203e-02 
-3.9499405e-01 7.4786826e-02 2.0220157e-02 
-3.6772761e-01 9.6414228e-02 -4.2562190e-02 
-3.8557261e-01 8.4646347e-02 -4.2857353e-02 
-3.7422559e-01 1.4510304e-01 4.1841359e-02 
-3.7278608e-01 9.0649337e-02 -4.2697036e-02 
-3.7747009e-01 8.7590558e-02 -4.2766677e-02 
-4.0238612e-01 7.4826522e-02 -2.9061761e-02 
-3.7454094e-01 1.3816815e-01 4.1925165e-02 
-3.9335882e-01 7.4753009e-02 6.6925074e-05 
-3.9744935e-01 8.4535658e-02 -4.3713912e-02 
-3.6492632e-01 1.0523900e-01 -4.2322844e-02 
-4.0689751e-01 7.4785563e-02 -3.3878902e-02 
-3.9253180e-01 7.4715900e-02 1.3395374e-02 
-3.8767768e-01 8.9881947e-02 4.2498955e-02 
-3.7474733e-01 1.3120436e-01 4.1976159e-02 
-3.6875145e-01 9.3952244e-02 -4.2610914e-02 
-3.8299138e-01 8.4710533e-02 -4.2812999e-02 
-3.6460744e-01 1.0269973e-01 -4.2411176e-02 
-3.9505462e-01 8.3176971e-02 -4.2994291e-02 
-3.8148185e-01 1.0379763e-01 4.2298982e-02 
-3.9497227e-01 7.4812248e-02 -1.8154629e-02 
-3.6469763e-01 1.0014565e-01 -4.2460803e-02 
-3.9240406e-01 8.2326819e-02 -4.2879766e-02 
-3.9653711e-01 7.4835034e-02 -2.3715822e-02 
-3.9288867e-01 7.4765714e-02 -1.2251140e-02 
-3.7483931e-01 1.2420730e-01 4.2031938e-02 
-3.7491014e-01 8.8106674e-02 -4.2734344e-02 
-3.8989579e-01 7.4647844e-02 6.8134084e-03 
-4.1619395e-01 7.3767124e-02 -3.9746850e-02 
-3.9317696e-01 7.5427414e-02 4.2041571e-02 
-3.6520843e-01 9.7553879e-02 -4.2513943e-02 
-4.0246929e-01 7.4816957e-02 -3.3808837e-02 
-3.8958076e-01 8.1947498e-02 -4.2815521e-02 
-3.9180845e-01 7.4626652e-02 3.4630053e-02 
-3.8032429e-01 8.4990013e-02 -4.2784132e-02 
-3.9028220e-01 7.4691232e-02 -6.0286247e-03 
-3.7024242e-01 9.1387044e-02 -4.2658814e-02 
-3.9755949e-01 7.4839585e-02 -2.8913269e-02 
-4.1325270e-01 7.5384497e-02 -3.8388508e-02 
-3.7480781e-01 1.1717675e-01 4.2088494e-02 
-3.9008953e-01 7.4646669e-02 2.7488418e-02 
-4.0970680e-01 7.4960268e-02 -3.8128817e-02 
-3.8102630e-01 9.6582404e-02 4.2358885e-02 
-3.8669877e-01 8.1945122e-02 -4.2778946e-02 
-3.6614985e-01 9.4899319e-02 -4.2566906e-02 
-4.0313941e-01 8.2158567e-02 -4.3676342e-02 
-3.6227309e-01 1.0701500e-01 -4.2274528e-02 
-3.8685337e-01 8.2572452e-02 4.2639144e-02 
-4.0580493e-01 7.4866913e-02 -3.8092100e-02 
-4.0062463e-01 8.0602570e-02 -4.2912097e-02 
-3.6195506e-01 1.0425399e-01 -4.2359667e-02 
-3.8808344e-01 7.4575453e-02 2.0507104e-02 
-3.9797069e-01 7.4846631e-02 -3.3735088e-02 
-3.8713792e-01 7.4588192e-02 4.7324633e-04 
-3.7221119e-01 8.8689292e-02 -4.2706266e-02 
-3.9752762e-01 7.9355431e-02 -4.2811899e-02 
-3.7464272e-01 1.1011806e-01 4.2146340e-02 
-3.7755779e-01 8.5385816e-02 -4.2769228e-02 
-3.6202443e-01 1.0148744e-01 -4.2410189e-02 
-3.9136507e-01 7.4787367e-02 -2.3468942e-02 
-3.8951939e-01 7.4727994e-02 -1.7840973e-02 
-3.8716465e-01 7.4646304e-02 -1.1884623e-02 
-3.8585094e-01 7.4515438e-02 1.3743390e-02 
-3.8376497e-01 8.2147827e-02 -4.2781914e-02 
-3.6753063e-01 9.2155280e-02 -4.2620996e-02 
-3.9268335e-01 7.4826398e-02 -2.8739738e-02 
-4.0175596e-01 7.4774215e-02 -3.8099524e-02 
-3.6249056e-01 9.8692994e-02 -4.2465373e-02 
-3.9432000e-01 7.8924755e-02 -4.2747364e-02 
-3.8040577e-01 8.9370344e-02 4.2409728e-02 
-3.6733497e-01 1.4386613e-01 4.1744275e-02 
-3.6762709e-01 1.3699801e-01 4.1827518e-02 
-3.7433566e-01 1.0304106e-01 4.2205350e-02 
-3.9341940e-01 7.4861233e-02 -3.3637969e-02 
-3.9109725e-01 7.8896323e-02 -4.2794265e-02 
-3.8429941e-01 7.4540532e-02 -5.6321610e-03 
-3.6336146e-01 9.5845829e-02 -4.2521829e-02 
-3.6780609e-01 1.3010746e-01 4.1878506e-02 
-3.8344674e-01 7.4459307e-02 7.1957508e-03 
-3.7466905e-01 8.5828892e-02 -4.2755092e-02 
-3.9763392e-01 7.4763798e-02 -3.8099287e-02 
-4.0956919e-01 8.0211007e-02 -4.1825409e-02 
-3.5939928e-01 1.0873951e-01 -4.2226759e-02 
-3.8587298e-01 7.5225562e-02 4.1943258e-02 
-3.8075061e-01 8.2440206e-02 -4.2789875e-02 
-3.6935828e-01 8.9291347e-02 -4.2676826e-02 
-4.0718112e-01 7.7199681e-02 -4.1722864e-02 
-3.5908985e-01 1.0576675e-01 -4.2307964e-02 
-3.8462582e-01 7.4404113e-02 3.4677760e-02 
-3.6786948e-01 1.2319319e-01 4.1934517e-02 
-3.8306814e-01 7.4428478e-02 2.7656502e-02 
-4.0361155e-01 7.5901869e-02 -4.1900867e-02 
-3.5914658e-01 1.0279520e-01 -4.2358620e-02 
-3.8615051e-01 7.4713727e-02 -2.3195635e-02 
-3.8783937e-01 7.9044665e-02 -4.2851602e-02 
-3.6464340e-01 9.2919049e-02 -4.2580859e-02 
-3.8776182e-01 7.4787172e-02 -2.8536939e-02 
-3.8402917e-01 7.4620644e-02 -1.7507564e-02 
-3.9997578e-01 7.5449288e-02 -4.2009783e-02 
-3.9346048e-01 7.4780494e-02 -3.8076531e-02 
-3.8124928e-01 7.4362478e-02 2.0765535e-02 
-3.6781233e-01 1.1625673e-01 4.1991586e-02 
-3.5957654e-01 9.9802781e-02 -4.2415082e-02 
-3.8091797e-01 7.4411558e-02 8.6901645e-04 
-3.7388251e-01 9.5963229e-02 4.2266815e-02 
-3.7963043e-01 8.2221009e-02 4.2554187e-02 
-3.8141293e-01 7.4507871e-02 -1.1508764e-02 
-3.8882038e-01 7.4855363e-02 -3.3511339e-02 
-3.7762647e-01 8.2755368e-02 -4.2796207e-02 
-3.7163825e-01 8.6276055e-02 -4.2737578e-02 
-3.7921891e-01 7.4310032e-02 1.4065046e-02 
-3.9629945e-01 7.5394227e-02 -4.2084922e-02 
-3.6038544e-01 9.6764805e-02 -4.2474053e-02 
-3.8451178e-01 7.9248899e-02 -4.2906329e-02 
-3.6634028e-01 8.9881667e-02 -4.2643503e-02 
-3.6762908e-01 1.0930351e-01 4.2050237e-02 
-3.5631591e-01 1.1038990e-01 -4.2176792e-02 
-3.8923747e-01 7.4798143e-02 -3.8027055e-02 
-3.7830426e-01 7.4375047e-02 -5.2388608e-03 
-3.5602074e-01 1.0721544e-01 -4.2254282e-02 
-3.7328526e-01 8.8892309e-02 4.2319480e-02 
-3.6157686e-01 9.3654410e-02 -4.2536820e-02 
-3.9259974e-01 7.5485233e-02 -4.2138285e-02 
-3.5607062e-01 1.0404695e-01 -4.2304659e-02 
-3.8279523e-01 7.4722118e-02 -2.8306816e-02 
-3.8089520e-01 7.4616061e-02 -2.2899938e-02 
-3.7702377e-01 7.4262567e-02 7.5568202e-03 
-3.6051054e-01 1.4269611e-01 4.1646035e-02 
-3.7437115e-01 8.3057578e-02 -4.2793344e-02 
-3.7850526e-01 7.4492479e-02 -1.7160233e-02 
-3.7872011e-01 7.5021613e-02 4.1846363e-02 
-3.6731551e-01 1.0234163e-01 4.2110365e-02 
-3.6078358e-01 1.3589677e-01 4.1728565e-02 
-3.8417237e-01 7.4824546e-02 -3.3355834e-02 
-3.8108697e-01 7.9450482e-02 -4.2945446e-02 
-3.5647041e-01 1.0086248e-01 -4.2361782e-02 
-3.6845208e-01 8.6702033e-02 -4.2712929e-02 
-3.7757124e-01 7.4181615e-02 3.4711224e-02 
-3.6094240e-01 1.2908014e-01 4.1779475e-02 
-3.7614862e-01 7.4208626e-02 2.7800897e-02 
-3.8885063e-01 7.5605591e-02 -4.2173954e-02 
-3.6315117e-01 9.0440710e-02 -4.2604334e-02 
-3.7470607e-01 7.4223789e-02 1.2497997e-03 
-3.7563896e-01 7.4352310e-02 -1.1130028e-02 
-3.5722348e-01 9.7637593e-02 -4.2422433e-02 
-3.8495922e-01 7.4799433e-02 -3.7951539e-02 
-3.6098643e-01 1.2224695e-01 4.1835643e-02 
-3.7449094e-01 7.4145800e-02 2.0996643e-02 
-3.7255285e-01 8.1882273e-02 4.2467863e-02 
-3.6687042e-01 9.5385499e-02 4.2173309e-02 
-3.5303398e-01 1.1194969e-01 -4.2122639e-02 
-3.6091355e-01 1.1539983e-01 4.1893150e-02 
-3.7263877e-01 7.4098522e-02 1.4360000e-02 
-3.5275701e-01 1.0858383e-01 -4.2197184e-02 
-3.7754671e-01 7.9622943e-02 -4.2965291e-02 
-3.7097181e-01 8.3329056e-02 -4.2778917e-02 
-3.5833079e-01 9.4345784e-02 -4.2487713e-02 
-3.7778237e-01 7.4632299e-02 -2.8054418e-02 
-3.7560025e-01 7.4496274e-02 -2.2588102e-02 
-3.7947167e-01 7.4767387e-02 -3.3175371e-02 
-3.5280404e-01 1.0522714e-01 -4.2247115e-02 
-3.6510380e-01 8.7092904e-02 -4.2679720e-02 
-3.8503366e-01 7.5705599e-02 -4.2191620e-02 
-3.7230309e-01 7.4195914e-02 -4.8543304e-03 
-3.6072127e-01 1.0854405e-01 4.1952527e-02 
-3.5317788e-01 1.0185786e-01 -4.2304498e-02 
-3.7063196e-01 7.4057279e-02 7.8945654e-03 
-3.7295094e-01 7.4345391e-02 -1.6805817e-02 
-3.8061830e-01 7.4776214e-02 -3.7852872e-02 
-3.5978964e-01 9.0956877e-02 -4.2558435e-02 
-3.6629687e-01 8.8438533e-02 4.2227694e-02 
-3.7170065e-01 7.4812430e-02 4.1749900e-02 
-3.5387975e-01 9.8451948e-02 -4.2366123e-02 
-3.7063283e-01 7.3956132e-02 3.4731716e-02 
-3.7388046e-01 7.9755986e-02 -4.2965099e-02 
-3.6932467e-01 7.3984670e-02 2.7923548e-02 
-3.8113350e-01 7.5765480e-02 -4.2191834e-02 
-3.6742247e-01 8.3561965e-02 -4.2752049e-02 
-3.6984767e-01 7.4181035e-02 -1.0754758e-02 
-3.6040813e-01 1.0168639e-01 4.2013678e-02 
-3.5375357e-01 1.4158463e-01 4.1546332e-02 
-3.6850798e-01 7.4025165e-02 1.6120097e-03 
-3.5401106e-01 1.3485432e-01 4.1628027e-02 
-3.6780664e-01 7.3923646e-02 2.1201851e-02 
-3.4956465e-01 1.1340758e-01 -4.2063102e-02 
-3.5490827e-01 9.4983593e-02 -4.2432912e-02 
-3.7272185e-01 7.4519157e-02 -2.7786007e-02 
-3.7471429e-01 7.4684111e-02 -3.2975243e-02 
-3.5415520e-01 1.2811078e-01 4.1678787e-02 
-3.4930844e-01 1.0986092e-01 -4.2135644e-02 
-3.6159201e-01 8.7441639e-02 -4.2637431e-02 
-3.4935528e-01 1.0632547e-01 -4.2185136e-02 
-3.7026675e-01 7.4356107e-02 -2.2266963e-02 
-3.7620777e-01 7.4725454e-02 -3.7734920e-02 
-3.5418668e-01 1.2135607e-01 4.1735034e-02 
-3.6560266e-01 8.1550816e-02 4.2379587e-02 
-3.6611207e-01 7.3879823e-02 1.4628480e-02 
-3.5997480e-01 9.4838872e-02 4.2077979e-02 
-3.4970620e-01 1.0277978e-01 -4.2242534e-02 
-3.6630128e-01 7.4003869e-02 -4.4833364e-03 
-3.5625828e-01 9.1423786e-02 -4.2505455e-02 
-3.6736941e-01 7.4180902e-02 -1.6450949e-02 
-3.7713983e-01 7.5780052e-02 -4.2175777e-02 
-3.7008328e-01 7.9847285e-02 -4.2946177e-02 
-3.5410521e-01 1.1459339e-01 4.1792899e-02 
-3.5036054e-01 9.9200379e-02 -4.2304617e-02 
-3.6427485e-01 7.3842976e-02 8.2077782e-03 
-3.6372225e-01 8.3753798e-02 -4.2713187e-02 
-3.5391033e-01 1.0782781e-01 4.1852907e-02 
-3.6989703e-01 7.4576019e-02 -3.2761020e-02 
-3.5942489e-01 8.8001783e-02 4.2133939e-02 
-3.6479982e-01 7.4595756e-02 4.1653090e-02 
-3.5791932e-01 8.7745273e-02 -4.2586269e-02 
-3.6404345e-01 7.3995081e-02 -1.0388463e-02 
-3.6380008e-01 7.3725369e-02 3.4740366e-02 
-3.5131501e-01 9.5562436e-02 -4.2372131e-02 
-3.6761290e-01 7.4384352e-02 -2.7507910e-02 
-3.7172228e-01 7.4647079e-02 -3.7601780e-02 
-3.4591915e-01 1.1475657e-01 -4.1997591e-02 
-3.6232808e-01 7.3815738e-02 1.9530740e-03 
-3.4568523e-01 1.1103994e-01 -4.2069038e-02 
-3.6259002e-01 7.3754694e-02 2.8026283e-02 
-3.6489615e-01 7.4197150e-02 -2.1942970e-02 
-3.7304598e-01 7.5750697e-02 -4.2145252e-02 
-3.4573362e-01 1.0733573e-01 -4.2118188e-02 
-3.5360236e-01 1.0106499e-01 4.1914971e-02 
-3.6119387e-01 7.3694559e-02 2.1382724e-02 
-3.6615426e-01 7.9898280e-02 -4.2910693e-02 
-3.4706391e-01 1.4052369e-01 4.1444858e-02 
-3.4730881e-01 1.3386153e-01 4.1525622e-02 
-3.5256255e-01 9.1838397e-02 -4.2445453e-02 
-3.4606388e-01 1.0362292e-01 -4.2175482e-02 
-3.5987387e-01 8.3904780e-02 -4.2663328e-02 
-3.4744250e-01 1.2718938e-01 4.1576167e-02 
-3.6030328e-01 7.3799370e-02 -4.1295403e-03 
-3.5876517e-01 8.1222487e-02 4.2288907e-02 
-3.5963910e-01 7.3652972e-02 1.4871182e-02 
-3.6176380e-01 7.4000251e-02 -1.6101400e-02 
-3.4667381e-01 9.9878824e-02 -4.2237666e-02 
-3.4746642e-01 1.2051005e-01 4.1632418e-02 
-3.5318312e-01 9.4315200e-02 4.1980486e-02 
-3.6501805e-01 7.4444881e-02 -3.2537919e-02 
-3.6715845e-01 7.4542500e-02 -3.7457348e-02 
-3.5795465e-01 7.3619171e-02 8.4960124e-03 
-3.5409116e-01 8.8003161e-02 -4.2526785e-02 
-3.4738144e-01 1.1382706e-01 4.1690555e-02 
-3.4755861e-01 9.6079750e-02 -4.2305348e-02 
-3.6245562e-01 7.4229548e-02 -2.7225863e-02 
-3.6884851e-01 7.5681631e-02 -4.2102228e-02 
-3.5823021e-01 7.3795212e-02 -1.0035503e-02 
-3.4210882e-01 1.1599302e-01 -4.1925968e-02 
-3.6209539e-01 7.9911976e-02 -4.2861114e-02 
-3.4189792e-01 1.1211739e-01 -4.1997073e-02 
-3.5800517e-01 7.4369970e-02 4.1555317e-02 
-3.5949039e-01 7.4020792e-02 -2.1621661e-02 
-3.4718840e-01 1.0714518e-01 4.1751096e-02 
-3.5706368e-01 7.3487584e-02 3.4738165e-02 
-3.4194896e-01 1.0825479e-01 -4.2046011e-02 
-3.5616964e-01 7.3595438e-02 2.2714070e-03 
-3.5265645e-01 8.7576407e-02 4.2037855e-02 
-3.4870992e-01 9.2199764e-02 -4.2378714e-02 
-3.5593866e-01 7.3517205e-02 2.8110802e-02 
-3.5588253e-01 8.4016426e-02 -4.2603719e-02 
-3.4226033e-01 1.0438480e-01 -4.2103160e-02 
-3.5464959e-01 7.3457363e-02 2.1540891e-02 
-3.4688876e-01 1.0046918e-01 4.1813954e-02 
-3.5613723e-01 7.3804435e-02 -1.5761785e-02 
-3.4282864e-01 1.0048563e-01 -4.2165223e-02 
-3.5431265e-01 7.3582696e-02 -3.7954719e-03 
-3.6251487e-01 7.4413762e-02 -3.7305073e-02 
-3.6454654e-01 7.5577938e-02 -4.2048620e-02 
-3.5321930e-01 7.3417151e-02 1.5089147e-02 
-3.6007695e-01 7.4292600e-02 -3.2310469e-02 
-3.5011487e-01 8.8215931e-02 -4.2459698e-02 
-3.4044050e-01 1.3950590e-01 4.1341316e-02 
-3.5202826e-01 8.0894093e-02 4.2195475e-02 
-3.4067529e-01 1.3291032e-01 4.1421076e-02 
-3.4080176e-01 1.2630731e-01 4.1471348e-02 
-3.5725111e-01 7.4056304e-02 -2.6944688e-02 
-3.5791075e-01 7.9891807e-02 -4.2799823e-02 
-3.4364798e-01 9.6534862e-02 -4.2232707e-02 
-3.5167253e-01 7.3385400e-02 8.7594523e-03 
-3.4648500e-01 9.3808030e-02 4.1880534e-02 
-3.4082175e-01 1.1970010e-01 4.1527531e-02 
-3.3814493e-01 1.1711594e-01 -4.1848391e-02 
-3.5241140e-01 7.3581991e-02 -9.6990360e-03 
-3.3795720e-01 1.1309227e-01 -4.1919706e-02 
-3.3801157e-01 1.0908184e-01 -4.1968556e-02 
-3.5175508e-01 8.4090754e-02 -4.2535623e-02 
-3.5405184e-01 7.3828224e-02 -2.1307452e-02 
-3.4470916e-01 9.2508222e-02 -4.2305648e-02 
-3.4073685e-01 1.1309231e-01 4.1585856e-02 
-3.5003493e-01 7.3364134e-02 2.5662885e-03 
-3.3830553e-01 1.0506495e-01 -4.2025564e-02 
-3.5130622e-01 7.4133920e-02 4.1456088e-02 
-3.5041540e-01 7.3241456e-02 3.4725984e-02 
-3.4598097e-01 8.7157967e-02 4.1939144e-02 
-3.6014133e-01 7.5444602e-02 -4.1986129e-02 
-3.5779194e-01 7.4263048e-02 -3.7147846e-02 
-3.4936489e-01 7.3271049e-02 2.8178666e-02 
-3.4054869e-01 1.0648837e-01 4.1646831e-02 
-3.3883482e-01 1.0102082e-01 -4.2087383e-02 
-3.5507472e-01 7.4120989e-02 -3.2082375e-02 
-3.4599894e-01 8.8384866e-02 -4.2385759e-02 
-3.5049281e-01 7.3594245e-02 -1.5435515e-02 
-3.4817052e-01 7.3211114e-02 2.1677993e-02 
-3.4833225e-01 7.3354009e-02 -3.4826335e-03 
-3.5360588e-01 7.9841068e-02 -4.2728941e-02 
-3.3959279e-01 9.6928331e-02 -4.2154455e-02 
-3.4685142e-01 7.3171673e-02 1.5283658e-02 
-3.5200133e-01 7.3866001e-02 -2.6668183e-02 
-3.4025939e-01 9.9892365e-02 4.1710366e-02 
-3.4538190e-01 8.0563168e-02 4.2099024e-02 
-3.3388171e-01 1.3852453e-01 4.1235423e-02 
-3.3403859e-01 1.1812627e-01 -4.1765185e-02 
-3.4749937e-01 8.4129862e-02 -4.2460200e-02 
-3.3410848e-01 1.3199357e-01 4.1314125e-02 
-3.4542888e-01 7.3141249e-02 8.9987697e-03 
-3.3387381e-01 1.1396539e-01 -4.1837061e-02 
-3.4659005e-01 7.3355828e-02 -9.3811097e-03 
-3.3423019e-01 1.2545723e-01 4.1364072e-02 
-3.4056976e-01 9.2764870e-02 -4.2226702e-02 
-3.3393191e-01 1.0981771e-01 -4.1885920e-02 
-3.4858325e-01 7.3620435e-02 -2.1003624e-02 
-3.3987180e-01 9.3312227e-02 4.1777867e-02 
-3.5563582e-01 7.5286044e-02 -4.1916179e-02 
-3.3424890e-01 1.1891889e-01 4.1420121e-02 
-3.5299161e-01 7.4092423e-02 -3.6987979e-02 
-3.3420978e-01 1.0566433e-01 -4.1942807e-02 
-3.4392545e-01 7.3121673e-02 2.8377024e-03 
-3.4469407e-01 7.3886796e-02 4.1354999e-02 
-3.3416656e-01 1.1238213e-01 4.1478555e-02 
-3.5001350e-01 7.3931666e-02 -3.1856503e-02 
-3.4175252e-01 8.8511548e-02 -4.2305675e-02 
-3.4384801e-01 7.2985984e-02 3.4704586e-02 
-3.3470254e-01 1.0148552e-01 -4.2004328e-02 
-3.4918729e-01 7.9762662e-02 -4.2650240e-02 
-3.4286338e-01 7.3015335e-02 2.8231300e-02 
-3.3938969e-01 8.6742954e-02 4.1837559e-02 
-3.4483353e-01 7.3370304e-02 -1.5124887e-02 
-3.3398528e-01 1.0585107e-01 4.1539872e-02 
-3.4175326e-01 7.2955068e-02 2.1795637e-02 
-3.4236430e-01 7.3113392e-02 -3.1916640e-03 
-3.3540308e-01 9.7261499e-02 -4.2070884e-02 
-3.4670896e-01 7.3659814e-02 -2.6399152e-02 
-3.4312383e-01 8.4135738e-02 -4.2378451e-02 
-3.4053383e-01 7.2915978e-02 1.5456143e-02 
-3.2980071e-01 1.1902633e-01 -4.1676750e-02 
-3.3370754e-01 9.9329199e-02 4.1603971e-02 
-3.5103423e-01 7.5105952e-02 -4.1839917e-02 
-3.2965835e-01 1.1473887e-01 -4.1749357e-02 
-3.3630156e-01 9.2971240e-02 -4.2142321e-02 
-3.3881770e-01 8.0227795e-02 4.1999348e-02 
-3.2972043e-01 1.1046437e-01 -4.1798288e-02 
-3.4308764e-01 7.3398228e-02 -2.0712415e-02 
-3.4811706e-01 7.3903700e-02 -3.6827234e-02 
-3.4076879e-01 7.3117018e-02 -9.0828221e-03 
-3.3922349e-01 7.2886359e-02 9.2149886e-03 
-3.2738562e-01 1.3757356e-01 4.1126919e-02 
-3.2998340e-01 1.0618482e-01 -4.1855077e-02 
-3.2760611e-01 1.3110508e-01 4.1204519e-02 
-3.4489638e-01 7.3726002e-02 -3.1634944e-02 
-3.3333635e-01 9.2823684e-02 4.1672259e-02 
-3.2772496e-01 1.2463285e-01 4.1254097e-02 
-3.4466216e-01 7.9659024e-02 -4.2565130e-02 
-3.3738505e-01 8.8597654e-02 -4.2220071e-02 
-3.3044203e-01 1.0188159e-01 -4.1916286e-02 
-3.3784213e-01 7.2867897e-02 3.0861732e-03 
-3.2774427e-01 1.1816025e-01 4.1309952e-02 
-3.3816113e-01 7.3628036e-02 4.1251718e-02 
-3.3735513e-01 7.2720408e-02 3.4674634e-02 
-3.3916230e-01 7.3133088e-02 -1.4831237e-02 
-3.2766620e-01 1.1169074e-01 4.1368422e-02 
-3.3108897e-01 9.7536188e-02 -4.1982297e-02 
-3.4137719e-01 7.3438709e-02 -2.6139510e-02 
-3.3642925e-01 7.2749377e-02 2.8269997e-02 
-3.3287533e-01 8.6328581e-02 4.1732890e-02 
-3.3641052e-01 7.2860880e-02 -2.9225197e-03 
-3.3863716e-01 8.4110170e-02 -4.2291195e-02 
-3.3539449e-01 7.2688636e-02 2.1895368e-02 
-3.4634175e-01 7.4907262e-02 -4.1758229e-02 
-3.2749307e-01 1.0522811e-01 4.1429992e-02 
-3.3191445e-01 9.3129093e-02 -4.2052908e-02 
-3.2544182e-01 1.1981944e-01 -4.1583491e-02 
-3.3426466e-01 7.2649611e-02 1.5608107e-02 
-3.2532119e-01 1.1541568e-01 -4.1656859e-02 
-3.4317236e-01 7.3698398e-02 -3.6666886e-02 
-3.2538738e-01 1.1102454e-01 -4.1705887e-02 
-3.3756815e-01 7.3162239e-02 -2.0435173e-02 
-3.3494993e-01 7.2865768e-02 -8.8045070e-03 
-3.3232867e-01 7.9886478e-02 4.1896278e-02 
-3.2722753e-01 9.8775374e-02 4.1494555e-02 
-3.2563660e-01 1.0662894e-01 -4.1762591e-02 
-3.4003798e-01 7.9532125e-02 -4.2474694e-02 
-3.3305580e-01 7.2620424e-02 9.4093673e-03 
-3.3972708e-01 7.3505120e-02 -3.1419113e-02 
-3.3290595e-01 8.8644858e-02 -4.2129473e-02 
-3.2606341e-01 1.0221133e-01 -4.1823497e-02 
-3.2095019e-01 1.3664765e-01 4.1015563e-02 
-3.2116586e-01 1.3023947e-01 4.1092024e-02 
-3.3178545e-01 7.2602655e-02 3.3126137e-03 
-3.2687262e-01 9.2339094e-02 4.1563509e-02 
-3.2128330e-01 1.2382883e-01 4.1141191e-02 
-3.3348189e-01 7.2882956e-02 -1.4555128e-02 
-3.2666044e-01 9.7754490e-02 -4.1888982e-02 
-3.3600957e-01 7.3203458e-02 -2.5890421e-02 
-3.3170095e-01 7.3357256e-02 4.1145962e-02 
-3.3404806e-01 8.4054738e-02 -4.2199078e-02 
-3.4156418e-01 7.4692227e-02 -4.1671779e-02 
-3.3093115e-01 7.2444154e-02 3.4636703e-02 
-3.2130457e-01 1.1741904e-01 4.1196799e-02 
-3.3005803e-01 7.2472646e-02 2.8295921e-02 
-3.3047225e-01 7.2596473e-02 -2.6746464e-03 
-3.2123187e-01 1.1101335e-01 4.1255239e-02 
-3.2741812e-01 9.3240288e-02 -4.1958816e-02 
-3.2909098e-01 7.2411355e-02 2.1978643e-02 
-3.2643181e-01 8.5912615e-02 4.1624952e-02 
-3.3816228e-01 7.3477747e-02 -3.6507798e-02 
-3.2097209e-01 1.2050956e-01 -4.1485782e-02 
-3.2087238e-01 1.1599939e-01 -4.1559831e-02 
-3.3202799e-01 7.2912957e-02 -2.0172528e-02 
-3.2804195e-01 7.2372203e-02 1.5741061e-02 
-3.2094275e-01 1.1150144e-01 -4.1608947e-02 
-3.3532237e-01 7.9383532e-02 -4.2379723e-02 
-3.2106763e-01 1.0461526e-01 4.1316985e-02 
-3.2117930e-01 1.0699957e-01 -4.1665570e-02 
-3.2913551e-01 7.2602216e-02 -8.5459160e-03 
-3.3450979e-01 7.3269910e-02 -3.1209867e-02 
-3.2832449e-01 8.8654772e-02 -4.2034305e-02 
-3.2692496e-01 7.2343186e-02 9.5833004e-03 
-3.2590892e-01 7.9538039e-02 4.1789676e-02 
-3.2157653e-01 1.0247732e-01 -4.1726191e-02 
-3.2081453e-01 9.8227378e-02 4.1381920e-02 
-3.3670774e-01 7.4462514e-02 -4.1581052e-02 
-3.2575559e-01 7.2325808e-02 3.5181959e-03 
-3.2212717e-01 9.7918635e-02 -4.1791192e-02 
-3.2936508e-01 8.3970821e-02 -4.2102587e-02 
-3.3060983e-01 7.2954660e-02 -2.5652443e-02 
-3.2779491e-01 7.2620172e-02 -1.4296524e-02 
-3.1457335e-01 1.3574208e-01 4.0901133e-02 
-3.2047556e-01 9.1855773e-02 4.1451435e-02 
-3.1478543e-01 1.2939204e-01 4.0976420e-02 
-3.1490258e-01 1.2304061e-01 4.1025140e-02 
-3.2530800e-01 7.3074202e-02 4.1037486e-02 
-3.2457116e-01 7.2156787e-02 3.4591289e-02 
-3.3309192e-01 7.3242708e-02 -3.6350500e-02 
-3.2282199e-01 9.3306706e-02 -4.1860332e-02 
-3.2455055e-01 7.2320147e-02 -2.4471311e-03 
-3.2374569e-01 7.2184739e-02 2.8310111e-02 
-3.1492676e-01 1.1669091e-01 4.1080449e-02 
-3.1640122e-01 1.2110100e-01 -4.1383936e-02 
-3.2283972e-01 7.2122860e-02 2.2046822e-02 
-3.3052295e-01 7.9214474e-02 -4.2280775e-02 
-3.1632157e-01 1.1649387e-01 -4.1458514e-02 
-3.2005402e-01 8.5493254e-02 4.1513583e-02 
-3.1639616e-01 1.1189854e-01 -4.1507686e-02 
-3.1486014e-01 1.1034598e-01 4.1138801e-02 
-3.2647034e-01 7.2650750e-02 -1.9924550e-02 
-3.2924892e-01 7.3021056e-02 -3.1007617e-02 
-3.2364962e-01 8.8628928e-02 -4.1934891e-02 
-3.2186371e-01 7.2083455e-02 1.5856490e-02 
-3.1662107e-01 1.0729980e-01 -4.1564214e-02 
-3.2332730e-01 7.2326450e-02 -8.3063788e-03 
-3.1470515e-01 1.0400904e-01 4.1200652e-02 
-3.1699087e-01 1.0268222e-01 -4.1624569e-02 
-3.2083003e-01 7.2054428e-02 9.7382412e-03 
-3.3177881e-01 7.4219311e-02 -4.1486388e-02 
-3.1955347e-01 7.9181542e-02 4.1679420e-02 
-3.2459655e-01 8.3859627e-02 -4.2002077e-02 
-3.1446442e-01 9.7682328e-02 4.1265881e-02 
-3.1749849e-01 9.8030896e-02 -4.1689140e-02 
-3.2518175e-01 7.2692767e-02 -2.5425669e-02 
-3.2210380e-01 7.2344918e-02 -1.4054948e-02 
-3.1975254e-01 7.2037227e-02 3.7042449e-03 
-3.2796661e-01 7.2994013e-02 -3.6195259e-02 
-3.1813508e-01 9.3330205e-02 -4.1757685e-02 
-3.1414088e-01 9.1371531e-02 4.1335868e-02 
-3.1897755e-01 7.2778706e-02 4.0926071e-02 
-3.0825309e-01 1.3485268e-01 4.0783422e-02 
-3.2564715e-01 7.9025910e-02 -4.2178217e-02 
-3.1827088e-01 7.1857971e-02 3.4538816e-02 
-3.0846263e-01 1.2855875e-01 4.0857499e-02 
-3.1864622e-01 7.2031863e-02 -2.2388281e-03 
-3.0858034e-01 1.2226428e-01 4.0905736e-02 
-3.1748861e-01 7.1885339e-02 2.8313492e-02 
-3.1173846e-01 1.2159828e-01 -4.1278201e-02 
-3.1167798e-01 1.1690318e-01 -4.1353110e-02 
-3.1175680e-01 1.1221944e-01 -4.1402285e-02 
-3.2089829e-01 7.2375884e-02 -1.9690899e-02 
-3.0860808e-01 1.1597220e-01 4.0960703e-02 
-3.2394900e-01 7.2759070e-02 -3.0812432e-02 
-3.1663792e-01 7.1822862e-02 2.2101152e-02 
-3.1888993e-01 8.8568772e-02 -4.1831472e-02 
-3.1197106e-01 1.0753278e-01 -4.1458694e-02 
-3.1373767e-01 8.5069029e-02 4.1398632e-02 
-3.0854796e-01 1.0968531e-01 4.1018912e-02 
-3.1572805e-01 7.1783124e-02 1.5955807e-02 
-3.1752688e-01 7.2038514e-02 -8.0849403e-03 
-3.2678381e-01 7.3963434e-02 -4.1388017e-02 
-3.1231548e-01 1.0282876e-01 -4.1518798e-02 
-3.1476999e-01 7.1753965e-02 9.8756429e-03 
-3.0840231e-01 1.0340654e-01 4.1080808e-02 
-3.1975044e-01 8.3722217e-02 -4.1897787e-02 
-3.1278325e-01 9.8093530e-02 -4.1582992e-02 
-3.1972911e-01 7.2418107e-02 -2.5209848e-02 
-3.1325809e-01 7.8816232e-02 4.1565398e-02 
-3.1641085e-01 7.2057315e-02 -1.3829621e-02 
-3.2279171e-01 7.2732206e-02 -3.6042140e-02 
-3.0817372e-01 9.7137840e-02 4.1146263e-02 
-3.1377613e-01 7.1736792e-02 3.8721562e-03 
-3.1336597e-01 9.3312585e-02 -4.1651040e-02 
-3.2070218e-01 7.8818589e-02 -4.2072273e-02 
-3.0786498e-01 9.0884558e-02 4.1216646e-02 
-3.0699254e-01 1.2200595e-01 -4.1168752e-02 
-3.1275992e-01 7.1731568e-02 -2.0484592e-03 
-3.1270554e-01 7.2470659e-02 4.0811518e-02 
-3.1202656e-01 7.1547451e-02 3.4479640e-02 
-3.0695034e-01 1.1723139e-01 -4.1243773e-02 
-3.1861450e-01 7.2484320e-02 -3.0624132e-02 
-3.0198750e-01 1.3397579e-01 4.0662236e-02 
-3.0703340e-01 1.1246776e-01 -4.1292886e-02 
-3.1405358e-01 8.8475661e-02 -4.1724211e-02 
-3.1531481e-01 7.2088542e-02 -1.9470948e-02 
-3.1128358e-01 7.1574200e-02 2.8306879e-02 
-3.0219539e-01 1.2773606e-01 4.0735062e-02 
-3.0231435e-01 1.2149650e-01 4.0782783e-02 
-3.1048304e-01 7.1511131e-02 2.2142769e-02 
-3.0723797e-01 1.0770165e-01 -4.1349142e-02 
-3.2172906e-01 7.3695412e-02 -4.1286084e-02 
-3.0234609e-01 1.1525980e-01 4.0837366e-02 
-3.1173566e-01 7.1738420e-02 -7.8804690e-03 
-3.0747910e-01 8.4638730e-02 4.1279954e-02 
-3.0755895e-01 1.0291961e-01 -4.1409000e-02 
-3.0963319e-01 7.1471010e-02 1.6040343e-02 
-3.1483434e-01 8.3559537e-02 -4.1789867e-02 
-3.0229265e-01 1.0902851e-01 4.0895385e-02 
-3.0798988e-01 9.8108739e-02 -4.1472866e-02 
-3.0874386e-01 7.1441638e-02 9.9969161e-03 
-3.1425555e-01 7.2130910e-02 -2.5004484e-02 
-3.1757250e-01 7.2457672e-02 -3.5891062e-02 
-3.0215626e-01 1.0280534e-01 4.0957273e-02 
-3.1071820e-01 7.1757433e-02 -1.3619568e-02 
-3.0701920e-01 7.8441495e-02 4.1447498e-02 
-3.0852280e-01 9.3255578e-02 -4.1540512e-02 
-3.1569496e-01 7.8593098e-02 -4.1963057e-02 
-3.0782615e-01 7.1424393e-02 4.0233340e-03 
-3.0193941e-01 9.6591924e-02 4.1022895e-02 
-3.0217172e-01 1.2232852e-01 -4.1055702e-02 
-3.0214694e-01 1.1748253e-01 -4.1130609e-02 
-3.1324980e-01 7.2197060e-02 -3.0442358e-02 
-3.0914829e-01 8.8350865e-02 -4.1613208e-02 
-3.0689220e-01 7.1419202e-02 -1.8746899e-03 
-3.0648848e-01 7.2149990e-02 4.0693640e-02 
-3.0223424e-01 1.1264703e-01 -4.1179586e-02 
-3.0972272e-01 7.1788839e-02 -1.9263879e-02 
-3.0583495e-01 7.1225023e-02 3.4414060e-02 
-3.0164478e-01 9.0393343e-02 4.1093614e-02 
-3.1662068e-01 7.3415561e-02 -4.1180669e-02 
-3.0512776e-01 7.1251127e-02 2.8290984e-02 
-3.0243001e-01 1.0780950e-01 -4.1235647e-02 
-2.9577482e-01 1.3310817e-01 4.0537387e-02 
-2.9598182e-01 1.2692088e-01 4.0608919e-02 
-3.0437280e-01 7.1187476e-02 2.2172694e-02 
-3.0272941e-01 1.0295735e-01 -4.1295261e-02 
-2.9610254e-01 1.2073434e-01 4.0656093e-02 
-3.0985548e-01 8.3372431e-02 -4.1678395e-02 
-3.0595492e-01 7.1426155e-02 -7.6917420e-03 
-3.0357749e-01 7.1146945e-02 1.6111325e-02 
-2.9613858e-01 1.1455101e-01 4.0710252e-02 
-3.0127523e-01 8.4201346e-02 4.1157409e-02 
-3.0312629e-01 9.8078642e-02 -4.1358838e-02 
-3.0876458e-01 7.1831325e-02 -2.4808923e-02 
-3.1231409e-01 7.2170676e-02 -3.5741835e-02 
-2.9609186e-01 1.0837320e-01 4.0768038e-02 
-3.0275068e-01 7.1117308e-02 1.0103399e-02 
-3.1063208e-01 7.8349907e-02 -4.1850601e-02 
-3.0502780e-01 7.1445302e-02 -1.3423704e-02 
-3.0361320e-01 9.3160830e-02 -4.1426161e-02 
-2.9596451e-01 1.0220337e-01 4.0829872e-02 
-3.0083374e-01 7.8056815e-02 4.1325608e-02 
-3.0190237e-01 7.1099925e-02 4.1591466e-03 
-3.0785910e-01 7.1897454e-02 -3.0266629e-02 
-2.9575892e-01 9.6042896e-02 4.0895613e-02 
-2.9728377e-01 1.2257036e-01 -4.0939104e-02 
-3.0418134e-01 8.8195577e-02 -4.1498509e-02 
-2.9727557e-01 1.1766048e-01 -4.1013675e-02 
-3.1146455e-01 7.3124043e-02 -4.1071803e-02 
-3.0104351e-01 7.1094697e-02 -1.7161856e-03 
-2.9736710e-01 1.1276069e-01 -4.1062440e-02 
-3.0412467e-01 7.1476840e-02 -1.9068761e-02 
-3.0032338e-01 7.1816646e-02 4.0572257e-02 
-2.9755493e-01 1.0785927e-01 -4.1118259e-02 
-2.9969320e-01 7.0890524e-02 3.4342321e-02 
-2.9901867e-01 7.0915959e-02 2.8266428e-02 
-2.9547764e-01 8.9896610e-02 4.0966616e-02 
-3.0482064e-01 8.3161661e-02 -4.1563391e-02 
-2.9783447e-01 1.0294450e-01 -4.1177621e-02 
-2.9830517e-01 7.0851740e-02 2.2191839e-02 
-3.0018581e-01 7.1101687e-02 -7.5175071e-03 
-2.8961342e-01 1.3224695e-01 4.0408698e-02 
-2.8982019e-01 1.2611050e-01 4.0478886e-02 
-2.8994308e-01 1.1997529e-01 4.0525479e-02 
-3.0702140e-01 7.1871389e-02 -3.5594196e-02 
-2.9755947e-01 7.0810784e-02 1.6169874e-02 
-3.0325953e-01 7.1519437e-02 -2.4622409e-02 
-2.9819995e-01 9.8005263e-02 -4.1240940e-02 
-2.9512342e-01 8.3756019e-02 4.1030854e-02 
-2.8998360e-01 1.1384354e-01 4.0579178e-02 
-3.0551976e-01 7.8089391e-02 -4.1734877e-02 
-2.9678959e-01 7.0780851e-02 1.0196341e-02 
-2.8994354e-01 1.0771733e-01 4.0636692e-02 
-2.9864437e-01 9.3029899e-02 -4.1308009e-02 
-2.9934149e-01 7.1120918e-02 -1.3240895e-02 
-2.9600455e-01 7.0763288e-02 4.2808975e-03 
-2.9469911e-01 7.7661759e-02 4.1199613e-02 
-2.8982493e-01 1.0159887e-01 4.0698431e-02 
-3.0244638e-01 7.1585596e-02 -3.0096393e-02 
-2.9915958e-01 8.8010905e-02 -4.1380113e-02 
-3.0626625e-01 7.2820913e-02 -4.0959477e-02 
-2.9233598e-01 1.2273568e-01 -4.0818958e-02 
-2.9234357e-01 1.1776900e-01 -4.0892984e-02 
-2.9243932e-01 1.1281202e-01 -4.0941462e-02 
-2.9852314e-01 7.1152566e-02 -1.8884613e-02 
-2.8963004e-01 9.5489320e-02 4.0764251e-02 
-2.9521428e-01 7.0757978e-02 -1.5716508e-03 
-2.9262002e-01 1.0785380e-01 -4.0996990e-02 
-2.9420767e-01 7.1470590e-02 4.0447195e-02 
-2.9359890e-01 7.0543818e-02 3.4264620e-02 
-2.9973622e-01 8.2927920e-02 -4.1444829e-02 
-2.9288133e-01 1.0288340e-01 -4.1056087e-02 
-2.9295413e-01 7.0568559e-02 2.8233744e-02 
-2.8936133e-01 8.9393269e-02 4.0835498e-02 
-2.9227837e-01 7.0503788e-02 2.2201012e-02 
-2.9442939e-01 7.0764966e-02 -7.3565275e-03 
-3.0169906e-01 7.1559905e-02 -3.5447832e-02 
-2.9774353e-01 7.1195286e-02 -2.4444137e-02 
-2.9321785e-01 9.7890511e-02 -4.1119169e-02 
-2.8350181e-01 1.3138956e-01 4.0275988e-02 
-2.9157784e-01 7.0462399e-02 1.6217003e-02 
-2.8370892e-01 1.2530251e-01 4.0344780e-02 
-3.0036387e-01 7.7811860e-02 -4.1615815e-02 
-2.8383433e-01 1.1921712e-01 4.0390760e-02 
-2.8902142e-01 8.3302014e-02 4.0900147e-02 
-2.9362306e-01 9.2864251e-02 -4.1186036e-02 
-2.9085981e-01 7.0432151e-02 1.0276890e-02 
-2.8387942e-01 1.1313537e-01 4.0443963e-02 
-2.9366097e-01 7.0784257e-02 -1.3070007e-02 
-2.8384588e-01 1.0705911e-01 4.0501169e-02 
-2.9701543e-01 7.1261526e-02 -2.9931053e-02 
-2.9013250e-01 7.0414383e-02 4.3898058e-03 
-3.0103108e-01 7.2506151e-02 -4.0843651e-02 
-2.9408939e-01 8.7797887e-02 -4.1257985e-02 
-2.8861308e-01 7.7255946e-02 4.1069388e-02 
-2.8733520e-01 1.2282847e-01 -4.0695223e-02 
-2.8373565e-01 1.0099032e-01 4.0562778e-02 
-2.8735781e-01 1.1781163e-01 -4.0768511e-02 
-2.8745779e-01 1.1280414e-01 -4.0816627e-02 
-2.9292048e-01 7.0816008e-02 -1.8710436e-02 
-2.8940491e-01 7.0408966e-02 -1.4398542e-03 
-2.8763210e-01 1.0779576e-01 -4.0871814e-02 
-2.8355088e-01 9.4929951e-02 4.0628643e-02 
-2.9460822e-01 8.2671838e-02 -4.1322649e-02 
-2.8813915e-01 7.1111781e-02 4.0318281e-02 
-2.8787670e-01 1.0277630e-01 -4.0930628e-02 
-2.8754992e-01 7.0184786e-02 3.4181109e-02 
-2.8693226e-01 7.0208810e-02 2.8193389e-02 
-2.9635147e-01 7.1236265e-02 -3.5302398e-02 
-2.8868665e-01 7.0415930e-02 -7.2076122e-03 
-2.8329393e-01 8.8882370e-02 4.0700103e-02 
-2.8629086e-01 7.0143497e-02 2.2200921e-02 
-2.8818654e-01 9.7736185e-02 -4.0993486e-02 
-2.9221953e-01 7.0858869e-02 -2.4273287e-02 
-2.9516992e-01 7.7517570e-02 -4.1493314e-02 
-2.8563145e-01 7.0101673e-02 1.6253619e-02 
-2.7743867e-01 1.3053370e-01 4.0139083e-02 
-2.8855558e-01 9.2665257e-02 -4.1060195e-02 
-2.7764664e-01 1.2449478e-01 4.0206421e-02 
-2.8296733e-01 8.2838687e-02 4.0765139e-02 
-2.7777483e-01 1.1845786e-01 4.0251754e-02 
-2.8798783e-01 7.0435270e-02 -1.2909934e-02 
-2.8496069e-01 7.0071101e-02 1.0346092e-02 
-2.7782453e-01 1.1242472e-01 4.0304426e-02 
-2.9576401e-01 7.2179687e-02 -4.0724261e-02 
-2.9156977e-01 7.0925243e-02 -2.9769998e-02 
-2.8897680e-01 8.7557482e-02 -4.1132057e-02 
-2.7779733e-01 1.0639697e-01 4.0361291e-02 
-2.8428606e-01 7.0053114e-02 4.4869977e-03 
-2.8228782e-01 1.2285250e-01 -4.0567823e-02 
-2.8232475e-01 1.1779173e-01 -4.0640195e-02 
-2.8257373e-01 7.6839041e-02 4.0934803e-02 
-2.8731885e-01 7.0467131e-02 -1.8545253e-02 
-2.8242896e-01 1.1273996e-01 -4.0687880e-02 
-2.7769507e-01 1.0037638e-01 4.0422739e-02 
-2.8259759e-01 1.0768766e-01 -4.0742675e-02 
-2.8944225e-01 8.2393989e-02 -4.1196762e-02 
-2.8361577e-01 7.0047575e-02 -1.3196444e-03 
-2.8282689e-01 1.0262529e-01 -4.0801186e-02 
-2.7751981e-01 9.4363697e-02 4.0488621e-02 
-2.9098274e-01 7.0900468e-02 -3.5157532e-02 
-2.8211595e-01 7.0740182e-02 4.0185341e-02 
-2.8154449e-01 6.9813322e-02 3.4091904e-02 
-2.8095147e-01 6.9836602e-02 2.8145749e-02 
-2.8295854e-01 7.0054508e-02 -7.0696343e-03 
-2.8311217e-01 9.7543962e-02 -4.0863824e-02 
-2.8669028e-01 7.0510159e-02 -2.4109043e-02 
-2.8994309e-01 7.7206737e-02 -4.1367247e-02 
-2.8034131e-01 6.9770757e-02 2.2192187e-02 
-2.7727381e-01 8.8363080e-02 4.0560268e-02 
-2.8344784e-01 9.2434194e-02 -4.0930405e-02 
-2.7971934e-01 6.9728496e-02 1.6280528e-02 
-2.8232356e-01 7.0073897e-02 -1.2759619e-02 
-2.7142283e-01 1.2967731e-01 3.9997804e-02 
-2.7163211e-01 1.2368537e-01 4.0063625e-02 
-2.9046970e-01 7.1841421e-02 -4.0601221e-02 
-2.7909167e-01 6.9697594e-02 1.0404890e-02 
-2.7695950e-01 8.2365466e-02 4.0625675e-02 
-2.8611273e-01 7.0576717e-02 -2.9612614e-02 
-2.7176329e-01 1.1769575e-01 4.0108277e-02 
-2.8382740e-01 8.7290579e-02 -4.1002237e-02 
-2.7181760e-01 1.1171000e-01 4.0160385e-02 
-2.7846515e-01 6.9679382e-02 4.5735018e-03 
-2.7719984e-01 1.2281130e-01 -4.0436651e-02 
-2.7725044e-01 1.1771242e-01 -4.0507947e-02 
-2.7179653e-01 1.0572951e-01 4.0216878e-02 
-2.7735886e-01 1.1262224e-01 -4.0555134e-02 
-2.8172030e-01 7.0105880e-02 -1.8388120e-02 
-2.7657948e-01 7.6410740e-02 4.0795717e-02 
-2.8424356e-01 8.2094897e-02 -4.1067057e-02 
-2.7752248e-01 1.0753183e-01 -4.0609491e-02 
-2.7784726e-01 6.9673717e-02 -1.2099573e-03 
-2.7170182e-01 9.9755863e-02 4.0278137e-02 
-2.7773780e-01 1.0243231e-01 -4.0667674e-02 
-2.8559672e-01 7.0552480e-02 -3.5012863e-02 
-2.7153544e-01 9.3789588e-02 4.0344012e-02 
-2.7613647e-01 7.0355745e-02 4.0048201e-02 
-2.8468820e-01 7.6879543e-02 -4.1237475e-02 
-2.7800047e-01 9.7315403e-02 -4.0730093e-02 
-2.8115836e-01 7.0149102e-02 -2.3950615e-02 
-2.7558105e-01 6.9429324e-02 3.3997084e-02 
-2.7724595e-01 6.9680618e-02 -6.9415424e-03 
-2.7501036e-01 6.9451833e-02 2.8091147e-02 
-2.7442859e-01 6.9385461e-02 2.2175346e-02 
-2.7830535e-01 9.2172242e-02 -4.0796568e-02 
-2.7129957e-01 8.7834654e-02 4.0415827e-02 
-2.7384069e-01 6.9342762e-02 1.6298444e-02 
-2.8515252e-01 7.1491232e-02 -4.0474426e-02 
-2.7666957e-01 6.9700062e-02 -1.2618070e-02 
-2.8064742e-01 7.0215892e-02 -2.9458300e-02 
-2.7864645e-01 8.6997996e-02 -4.0868410e-02 
-2.7325230e-01 6.9311529e-02 1.0454129e-02 
-2.7099656e-01 8.1881838e-02 4.0481596e-02 
-2.6545324e-01 1.2881847e-01 3.9851970e-02 
-2.6566424e-01 1.2287253e-01 3.9916207e-02 
-2.6579861e-01 1.1692919e-01 3.9960145e-02 
-2.7207687e-01 1.2270817e-01 -4.0301578e-02 
-2.7214052e-01 1.1757663e-01 -4.0371653e-02 
-2.7266973e-01 6.9293089e-02 4.6502510e-03 
-2.6585749e-01 1.1098978e-01 4.0011654e-02 
-2.7225317e-01 1.1245351e-01 -4.0418282e-02 
-2.7612673e-01 6.9732186e-02 -1.8238141e-02 
-2.7901707e-01 8.1775036e-02 -4.0933405e-02 
-2.7241238e-01 1.0733045e-01 -4.0472152e-02 
-2.7062893e-01 7.5970759e-02 4.0651980e-02 
-2.6584230e-01 1.0505550e-01 4.0067745e-02 
-2.7209978e-01 6.9287299e-02 -1.1098183e-03 
-2.8019702e-01 7.0192245e-02 -3.4868017e-02 
-2.7261493e-01 1.0219917e-01 -4.0529983e-02 
-2.6575471e-01 9.9127702e-02 4.0128792e-02 
-2.7940978e-01 7.6536144e-02 -4.1103841e-02 
-2.7285681e-01 9.7051948e-02 -4.0592177e-02 
-2.7562619e-01 6.9775632e-02 -2.3797246e-02 
-2.7019935e-01 6.9958416e-02 3.9906682e-02 
-2.6559659e-01 9.3206750e-02 4.0194639e-02 
-2.7154973e-01 6.9294171e-02 -6.8223641e-03 
-2.6965833e-01 6.9032694e-02 3.3896698e-02 
-2.6910781e-01 6.9054403e-02 2.8029853e-02 
-2.7313327e-01 9.1880489e-02 -4.0658560e-02 
-2.6855177e-01 6.8987506e-02 2.2150861e-02 
-2.7981654e-01 7.1128991e-02 -4.0343756e-02 
-2.6537005e-01 8.7296417e-02 4.0266607e-02 
-2.6799484e-01 6.8944366e-02 1.6307992e-02 
-2.7102718e-01 6.9313683e-02 -1.2484357e-02 
-2.7517671e-01 6.9842696e-02 -2.9306475e-02 
-2.7343884e-01 8.6680481e-02 -4.0730445e-02 
-2.6744227e-01 6.8912802e-02 1.0494564e-02 
-2.6507735e-01 8.1387328e-02 4.0332733e-02 
-2.5952901e-01 1.2795545e-01 3.9701395e-02 
-2.6692416e-01 1.2254615e-01 -4.0162455e-02 
-2.5974210e-01 1.2205466e-01 3.9763980e-02 
-2.6700029e-01 1.1738706e-01 -4.0231179e-02 
-2.7376736e-01 8.1434836e-02 -4.0795662e-02 
-2.6689982e-01 6.8894135e-02 4.7180859e-03 
-2.5987981e-01 1.1615673e-01 3.9807168e-02 
-2.6711717e-01 1.1223612e-01 -4.0277192e-02 
-2.7053996e-01 6.9345965e-02 -1.8094476e-02 
-2.5994322e-01 1.1026277e-01 3.9858044e-02 
-2.6727255e-01 1.0708553e-01 -4.0330531e-02 
-2.7478700e-01 6.9819689e-02 -3.4722624e-02 
-2.6472095e-01 7.5518833e-02 4.0503433e-02 
-2.5993367e-01 1.0437378e-01 3.9913707e-02 
-2.6637377e-01 6.8888221e-02 -1.0183404e-03 
-2.6746345e-01 1.0192752e-01 -4.0387983e-02 
-2.7411205e-01 7.6176670e-02 -4.0966181e-02 
-2.5985275e-01 9.8490926e-02 3.9974516e-02 
-2.6768621e-01 9.6754924e-02 -4.0449944e-02 
-2.7009602e-01 6.9389664e-02 -2.3648218e-02 
-2.6587074e-01 6.8895073e-02 -6.7112073e-03 
-2.6430347e-01 6.9548135e-02 3.9760601e-02 
-2.6377524e-01 6.8623333e-02 3.3790766e-02 
-2.5970227e-01 9.2614387e-02 4.0040319e-02 
-2.6324285e-01 6.8644211e-02 2.7962084e-02 
-2.6793645e-01 9.1559932e-02 -4.0516243e-02 
-2.7446557e-01 7.0754562e-02 -4.0209078e-02 
-2.6271008e-01 6.8576787e-02 2.2119128e-02 
-2.6218128e-01 6.8533204e-02 1.6309722e-02 
-2.6970335e-01 6.9457043e-02 -2.9156579e-02 
-2.6539767e-01 6.8914665e-02 -1.2357624e-02 
-2.5948425e-01 8.6747751e-02 4.0112429e-02 
-2.6820916e-01 8.6338719e-02 -4.0588194e-02 
-2.6166132e-01 6.8501306e-02 1.0526863e-02 
-2.6174662e-01 1.2232807e-01 -4.0019117e-02 
-2.5920088e-01 8.0881501e-02 4.0178910e-02 
-2.6849872e-01 8.1074683e-02 -4.0653669e-02 
-2.6183471e-01 1.1714621e-01 -4.0086372e-02 
-2.6195583e-01 1.1197226e-01 -4.0131717e-02 
-2.6496167e-01 6.8947127e-02 -1.7956337e-02 
-2.5364938e-01 1.2708663e-01 3.9545888e-02 
-2.6115554e-01 6.8482413e-02 4.7777608e-03 
-2.5386491e-01 1.2123029e-01 3.9606750e-02 
-2.5400610e-01 1.1537703e-01 3.9649151e-02 
-2.6210790e-01 1.0679891e-01 -4.0184481e-02 
-2.6936983e-01 6.9434725e-02 -3.4576320e-02 
-2.5407397e-01 1.0952777e-01 3.9699362e-02 
-2.6228820e-01 1.0161891e-01 -4.0241528e-02 
-2.5885458e-01 7.5054709e-02 4.0349908e-02 
-2.6066968e-01 6.8476381e-02 -9.3472051e-04 
-2.6879896e-01 7.5801230e-02 -4.0824321e-02 
-2.5406980e-01 1.0368331e-01 3.9754567e-02 
-2.6456999e-01 6.8991108e-02 -2.3502853e-02 
-2.6249336e-01 9.6425540e-02 -4.0303244e-02 
-2.5399511e-01 9.7844641e-02 3.9815118e-02 
-2.6020981e-01 6.8483222e-02 -6.6072567e-03 
-2.5844789e-01 6.9124827e-02 3.9609772e-02 
-2.6271938e-01 9.1211480e-02 -4.0369462e-02 
-2.6910319e-01 7.0367806e-02 -4.0070244e-02 
-2.5793091e-01 6.8201141e-02 3.3679284e-02 
-2.5741471e-01 6.8221156e-02 2.7888015e-02 
-2.5385165e-01 9.2011763e-02 3.9880862e-02 
-2.5690292e-01 6.8153200e-02 2.2080484e-02 
-2.6422986e-01 6.9058839e-02 -2.9008077e-02 
-2.6296169e-01 8.5973324e-02 -4.0441497e-02 
-2.5978225e-01 6.8502909e-02 -1.2237080e-02 
-2.5639962e-01 6.8109169e-02 1.6304111e-02 
-2.5364135e-01 8.6188081e-02 3.9953107e-02 
-2.5590935e-01 6.8076936e-02 1.0551616e-02 
-2.6321517e-01 8.0694919e-02 -4.0507259e-02 
-2.5654885e-01 1.2205652e-01 -3.9871388e-02 
-2.5664844e-01 1.1685636e-01 -3.9937064e-02 
-2.5677380e-01 1.1166390e-01 -3.9981691e-02 
-2.5939349e-01 6.8535571e-02 -1.7822995e-02 
-2.5336637e-01 8.0363945e-02 4.0019945e-02 
-2.5543706e-01 6.8057818e-02 4.8299502e-03 
-2.6394844e-01 6.9037256e-02 -3.4428745e-02 
-2.5692306e-01 1.0647228e-01 -4.0033841e-02 
-2.4781371e-01 1.2621052e-01 3.9385254e-02 
-2.4803199e-01 1.2039804e-01 3.9444316e-02 
-2.4817678e-01 1.1458884e-01 3.9485896e-02 
-2.5709371e-01 1.0127471e-01 -4.0090456e-02 
-2.6347420e-01 7.5409913e-02 -4.0678080e-02 
-2.5498801e-01 6.8051673e-02 -8.5823328e-04 
-2.4824904e-01 1.0878366e-01 3.9535406e-02 
-2.5302904e-01 7.4578141e-02 4.0191227e-02 
-2.5905010e-01 6.8579863e-02 -2.3360517e-02 
-2.5728267e-01 9.6064901e-02 -4.0151914e-02 
-2.4825000e-01 1.0298311e-01 3.9590128e-02 
-2.6373273e-01 6.9968587e-02 -3.9927095e-02 
-2.5456778e-01 6.8058512e-02 -6.5097699e-03 
-2.5748632e-01 9.0835953e-02 -4.0218051e-02 
-2.4818111e-01 9.7188016e-02 3.9650401e-02 
-2.5263186e-01 6.8688414e-02 3.9454001e-02 
-2.5212462e-01 6.7766014e-02 3.3562225e-02 
-2.5162279e-01 6.7785131e-02 2.7807780e-02 
-2.4804405e-01 9.1398191e-02 3.9716072e-02 
-2.5875864e-01 6.8647980e-02 -2.8860462e-02 
-2.5770047e-01 8.5584852e-02 -4.0290181e-02 
-2.5112983e-01 6.7716636e-02 2.2035213e-02 
-2.5418213e-01 6.8078309e-02 -1.2121999e-02 
-2.5064959e-01 6.7672150e-02 1.6291572e-02 
-2.4784071e-01 8.5616867e-02 3.9788445e-02 
-2.5792047e-01 8.0295849e-02 -4.0356253e-02 
-2.5018632e-01 6.7639579e-02 1.0569346e-02 
-2.5133516e-01 1.2173385e-01 -3.9719078e-02 
-2.5144581e-01 1.1651960e-01 -3.9783076e-02 
-2.5157544e-01 1.1131286e-01 -3.9826939e-02 
-2.5383697e-01 6.8111192e-02 -1.7693775e-02 
-2.5852561e-01 6.8627178e-02 -3.4279549e-02 
-2.4757317e-01 7.9834269e-02 3.9855645e-02 
-2.5172233e-01 1.0610718e-01 -3.9878434e-02 
-2.4974460e-01 6.7620238e-02 4.8752562e-03 
-2.5814125e-01 7.5002790e-02 -4.0527270e-02 
-2.5188421e-01 1.0089619e-01 -3.9934590e-02 
-2.4202148e-01 1.2532570e-01 3.9219288e-02 
-2.4224282e-01 1.1955660e-01 3.9276474e-02 
-2.4239132e-01 1.1379098e-01 3.9317194e-02 
-2.4932928e-01 6.7613985e-02 -7.8822524e-04 
-2.5353827e-01 6.8155820e-02 -2.3220615e-02 
-2.4724371e-01 7.4088889e-02 4.0027202e-02 
-2.5205828e-01 9.5674002e-02 -3.9995776e-02 
-2.4246789e-01 1.0802940e-01 3.9365971e-02 
-2.4247371e-01 1.0227228e-01 3.9420183e-02 
-2.5835731e-01 6.9556766e-02 -3.9779462e-02 
-2.5224121e-01 9.0434093e-02 -4.0061830e-02 
-2.4894547e-01 6.7620832e-02 -6.4180724e-03 
-2.4241019e-01 9.6520270e-02 3.9480158e-02 
-2.4685477e-01 6.8238803e-02 3.9293090e-02 
-2.4635583e-01 6.7317845e-02 3.3439539e-02 
-2.5329197e-01 6.8224355e-02 -2.8713250e-02 
-2.4586663e-01 6.7336028e-02 2.7721481e-02 
-2.5242924e-01 8.5173797e-02 -4.0134062e-02 
-2.4539048e-01 6.7266983e-02 2.1983552e-02 
-2.4227894e-01 9.0773024e-02 3.9545745e-02 
-2.4859845e-01 6.7640754e-02 -1.2011716e-02 
-2.4493105e-01 6.7222034e-02 1.6272465e-02 
-2.5261816e-01 7.9877735e-02 -4.0200463e-02 
-2.4208180e-01 8.5033600e-02 3.9618243e-02 
-2.4449229e-01 6.7189121e-02 1.0580512e-02 
-2.4610961e-01 1.2136223e-01 -3.9561990e-02 
-2.4623093e-01 1.1613784e-01 -3.9624216e-02 
-2.4636485e-01 1.1092078e-01 -3.9667270e-02 
-2.4829359e-01 6.7673878e-02 -1.7568049e-02 
-2.5310395e-01 6.8204379e-02 -3.4128389e-02 
-2.4650979e-01 1.0570500e-01 -3.9718073e-02 
-2.4407846e-01 6.7169557e-02 4.9142153e-03 
-2.5280335e-01 7.4579912e-02 -4.0371696e-02 
-2.4182078e-01 7.9292099e-02 3.9685810e-02 
-2.4666371e-01 1.0048450e-01 -3.9773745e-02 
-2.3627229e-01 1.2443084e-01 3.9047780e-02 
-2.3649697e-01 1.1870477e-01 3.9103012e-02 
-2.4369405e-01 6.7163201e-02 -7.2410813e-04 
-2.4803630e-01 6.7718868e-02 -2.3082590e-02 
-2.4682404e-01 9.5253741e-02 -3.9834643e-02 
-2.3664928e-01 1.1298237e-01 3.9142833e-02 
-2.4149811e-01 7.3586716e-02 3.9857637e-02 
-2.5297989e-01 6.9132208e-02 -3.9627166e-02 
-2.3673008e-01 1.0726401e-01 3.9190843e-02 
-2.4698780e-01 9.0006559e-02 -3.9900609e-02 
-2.3674052e-01 1.0154995e-01 3.9244518e-02 
-2.4334374e-01 6.7170066e-02 -6.3315509e-03 
-2.4111619e-01 6.7775897e-02 3.9126834e-02 
-2.3668195e-01 9.5840664e-02 3.9304177e-02 
-2.4783198e-01 6.7787851e-02 -2.8565980e-02 
-2.4715157e-01 8.4740594e-02 -3.9972949e-02 
-2.4062412e-01 6.6856520e-02 3.3311162e-02 
-2.4014590e-01 6.6873732e-02 2.7629184e-02 
-2.4303235e-01 6.7190126e-02 -1.1905620e-02 
-2.3968469e-01 6.6804125e-02 2.1925696e-02 
-2.3655592e-01 9.0135648e-02 3.9369670e-02 
-2.3924395e-01 6.6758704e-02 1.6247097e-02 
-2.4731154e-01 7.9440805e-02 -4.0039695e-02 
-2.4087600e-01 1.2094360e-01 -3.9399918e-02 
-2.4100765e-01 1.1571279e-01 -3.9460283e-02 
-2.3636423e-01 8.4437789e-02 3.9442288e-02 
-2.3882741e-01 6.6725443e-02 1.0585517e-02 
-2.4768592e-01 6.7768744e-02 -3.3974930e-02 
-2.4114587e-01 1.1048915e-01 -3.9502484e-02 
-2.4276478e-01 6.7223510e-02 -1.7445239e-02 
-2.4128925e-01 1.0526700e-01 -3.9552559e-02 
-2.4746357e-01 7.4141313e-02 -4.0211157e-02 
-2.3843902e-01 6.6705656e-02 4.9473051e-03 
-2.4143594e-01 1.0004065e-01 -3.9607720e-02 
-2.3610883e-01 7.8737072e-02 3.9510232e-02 
-2.4158362e-01 9.4804917e-02 -3.9668315e-02 
-2.4254595e-01 6.7268886e-02 -2.2945920e-02 
-2.3808293e-01 6.6699200e-02 -6.6535243e-04 
-2.4760323e-01 6.8694777e-02 -3.9470019e-02 
-2.3056585e-01 1.2352465e-01 3.8870513e-02 
-2.3079415e-01 1.1784137e-01 3.8923707e-02 
-2.3095035e-01 1.1216194e-01 3.8962592e-02 
-2.3579189e-01 7.3071387e-02 3.9682325e-02 
-2.4172959e-01 8.9553936e-02 -3.9734187e-02 
-2.3103531e-01 1.0648654e-01 3.9009800e-02 
-2.3776344e-01 6.6706092e-02 -6.2496485e-03 
-2.3105012e-01 1.0081529e-01 3.9062912e-02 
-2.4238071e-01 6.7338345e-02 -2.8418216e-02 
-2.4187077e-01 8.4285626e-02 -3.9806639e-02 
-2.3541578e-01 6.7299588e-02 3.8955020e-02 
-2.3492924e-01 6.6381923e-02 3.3177007e-02 
-2.3099608e-01 9.5148491e-02 3.9122237e-02 
-2.3446042e-01 6.6398126e-02 2.7530933e-02 
-2.3748496e-01 6.6726304e-02 -1.1803153e-02 
-2.3401237e-01 6.6327942e-02 2.1861804e-02 
-2.4200375e-01 7.8985250e-02 -3.9873743e-02 
-2.3087471e-01 8.9485474e-02 3.9187625e-02 
-2.3358837e-01 6.6282036e-02 1.6215732e-02 
-2.4227385e-01 6.7320151e-02 -3.3818843e-02 
-2.3563792e-01 1.2047974e-01 -3.9232646e-02 
-2.3577957e-01 1.1524600e-01 -3.9291064e-02 
-2.3319192e-01 6.6248422e-02 1.0584714e-02 
-2.3592213e-01 1.1001931e-01 -3.9332373e-02 
-2.3725195e-01 6.6759967e-02 -1.7324808e-02 
-2.3068774e-01 8.3828964e-02 3.9260364e-02 
-2.4212480e-01 7.3687011e-02 -4.0045444e-02 
-2.3606431e-01 1.0479429e-01 -3.9381683e-02 
-2.3282670e-01 6.6228409e-02 4.9749509e-03 
-2.3620444e-01 9.9565561e-02 -3.9436308e-02 
-2.3043708e-01 7.8168835e-02 3.9328693e-02 
-2.3634044e-01 9.4328240e-02 -3.9496584e-02 
-2.3706887e-01 6.6805753e-02 -2.2810116e-02 
-2.4222995e-01 6.8244336e-02 -3.9307821e-02 
-2.3249655e-01 6.6221858e-02 -6.1148138e-04 
-2.2490197e-01 1.2260593e-01 3.8687259e-02 
-2.3646988e-01 8.9076737e-02 -3.9562355e-02 
-2.2513414e-01 1.1696530e-01 3.8738334e-02 
-2.3012485e-01 7.2542670e-02 3.9501051e-02 
-2.2529434e-01 1.1132868e-01 3.8776242e-02 
-2.3220544e-01 6.6228784e-02 -6.1718585e-03 
-2.2538337e-01 1.0569611e-01 3.8822613e-02 
-2.3694012e-01 6.6875714e-02 -2.8269539e-02 
-2.3659000e-01 8.3809220e-02 -3.9634920e-02 
-2.2540231e-01 1.0006753e-01 3.8875136e-02 
-2.2975335e-01 6.6809762e-02 3.8777428e-02 
-2.2927102e-01 6.5893931e-02 3.3036974e-02 
-2.2881010e-01 6.5909085e-02 2.7426741e-02 
-2.2535240e-01 9.4443074e-02 3.8934109e-02 
-2.3195739e-01 6.6249161e-02 -1.1703799e-02 
-2.3669774e-01 7.8511225e-02 -3.9702395e-02 
-2.2837354e-01 6.5838307e-02 2.1791999e-02 
-2.2523513e-01 8.8821934e-02 3.8999383e-02 
-2.2796445e-01 6.5791904e-02 1.6178593e-02 
-2.3686997e-01 6.6858477e-02 -3.3659805e-02 
-2.3039875e-01 1.1997222e-01 -3.9059954e-02 
-2.3055014e-01 1.1473886e-01 -3.9116340e-02 
-2.3069706e-01 1.0951245e-01 -3.9156717e-02 
-2.3175647e-01 6.6283121e-02 -1.7206257e-02 
-2.2758611e-01 6.5757929e-02 1.0578411e-02 
-2.3678976e-01 7.3217005e-02 -3.9874343e-02 
-2.3083836e-01 1.0428787e-01 -3.9205228e-02 
-2.2505217e-01 8.3206667e-02 3.9072241e-02 
-2.3097254e-01 9.9060040e-02 -3.9259291e-02 
-2.2724198e-01 6.5737688e-02 4.9975310e-03 
-2.2480540e-01 7.7587043e-02 3.9140966e-02 
-2.3109775e-01 9.3824333e-02 -3.9319231e-02 
-2.3160671e-01 6.6329339e-02 -2.2674718e-02 
-2.3686254e-01 6.7780749e-02 -3.9140368e-02 
-2.2693561e-01 6.5731043e-02 -5.6206526e-04 
-2.3121181e-01 8.8575409e-02 -3.9384893e-02 
-2.1928058e-01 1.2167351e-01 3.8497784e-02 
-2.2449687e-01 7.2000329e-02 3.9313591e-02 
-2.1951687e-01 1.1607549e-01 3.8546655e-02 
-2.2667064e-01 6.5738011e-02 -6.0977193e-03 
-2.1968114e-01 1.1048164e-01 3.8583547e-02 
-2.3151207e-01 6.6399829e-02 -2.8119551e-02 
-2.3131224e-01 8.3311655e-02 -3.9457574e-02 
-2.1977418e-01 1.0489185e-01 3.8629044e-02 
-2.1979700e-01 9.9305894e-02 3.8680952e-02 
-2.2412884e-01 6.6306295e-02 3.8593832e-02 
-2.2364943e-01 6.5392416e-02 3.2890947e-02 
-2.2645076e-01 6.5758566e-02 -1.1607086e-02 
-2.3139631e-01 7.8018856e-02 -3.9525431e-02 
-2.2319499e-01 6.5406479e-02 2.7316602e-02 
-2.1975084e-01 9.3723756e-02 3.8739555e-02 
-2.2276834e-01 6.5335090e-02 2.1716378e-02 
-2.3147641e-01 6.6383592e-02 -3.3497501e-02 
-2.2237244e-01 6.5288176e-02 1.6135869e-02 
-2.1963713e-01 8.8144478e-02 3.8804707e-02 
-2.2516169e-01 1.1942244e-01 -3.8881612e-02 
-2.2532257e-01 1.1419261e-01 -3.8935884e-02 
-2.3146106e-01 7.2731280e-02 -3.9697631e-02 
-2.2547388e-01 1.0896962e-01 -3.8975289e-02 
-2.2627967e-01 6.5792839e-02 -1.7089122e-02 
-2.2201040e-01 6.5253831e-02 1.0566880e-02 
-2.2561461e-01 1.0374862e-01 -3.9022966e-02 
-2.1945749e-01 8.2570454e-02 3.8877684e-02 
-2.2574341e-01 9.8524795e-02 -3.9076441e-02 
-2.2168542e-01 6.5233358e-02 5.0153820e-03 
-2.3150336e-01 6.7303878e-02 -3.8967444e-02 
-2.2585863e-01 9.3293736e-02 -3.9136028e-02 
-2.2616102e-01 6.5839512e-02 -2.2539292e-02 
-2.1921376e-01 7.6991355e-02 3.8946816e-02 
-2.2140082e-01 6.5226621e-02 -5.1671631e-04 
-2.2595832e-01 8.8050332e-02 -3.9201575e-02 
-2.1890795e-01 7.1444131e-02 3.9119709e-02 
-2.1370168e-01 1.2072625e-01 3.8301847e-02 
-2.2115995e-01 6.5233637e-02 -6.0268094e-03 
-2.2609838e-01 6.5910556e-02 -2.7967868e-02 
-2.1394234e-01 1.1517089e-01 3.8348425e-02 
-2.2604029e-01 8.2793161e-02 -3.9274372e-02 
-2.1411077e-01 1.0961988e-01 3.8384259e-02 
-2.1420773e-01 1.0407292e-01 3.8428847e-02 
-2.1423422e-01 9.8529652e-02 3.8480113e-02 
-2.1854226e-01 6.5789058e-02 3.8403995e-02 
-2.2610211e-01 7.7508233e-02 -3.9342623e-02 
-2.2096618e-01 6.5254382e-02 -1.1512578e-02 
-2.1806454e-01 6.4877243e-02 3.2738796e-02 
-2.1761521e-01 6.4890173e-02 2.7200487e-02 
-2.1419142e-01 9.2989902e-02 3.8538329e-02 
-2.1719698e-01 6.4818155e-02 2.1635007e-02 
-2.2609519e-01 6.5895362e-02 -3.3331618e-02 
-2.1992978e-01 1.1883167e-01 -3.8697384e-02 
-2.1681268e-01 6.4770713e-02 1.6087715e-02 
-2.2009994e-01 1.1360833e-01 -3.8749459e-02 
-2.2614116e-01 7.2229802e-02 -3.9515079e-02 
-2.2025568e-01 1.0839175e-01 -3.8787852e-02 
-2.1408074e-01 8.7452568e-02 3.8603350e-02 
-2.2082288e-01 6.5288986e-02 -1.6972971e-02 
-2.2039611e-01 1.0317733e-01 -3.8834660e-02 
-2.1646522e-01 6.4735988e-02 1.0550353e-02 
-2.2052004e-01 9.7960443e-02 -3.8887523e-02 
-2.1390376e-01 8.1919887e-02 3.8676447e-02 
-2.2615468e-01 6.6813584e-02 -3.8788826e-02 
-2.1615763e-01 6.4715279e-02 5.0288034e-03 
-2.2062599e-01 9.2736915e-02 -3.8946741e-02 
-2.2073335e-01 6.5336135e-02 -2.2403428e-02 
-2.1366225e-01 7.6381435e-02 3.8745997e-02 
-2.1589296e-01 6.4708452e-02 -4.7508410e-04 
-2.2071225e-01 8.7501828e-02 -3.9012164e-02 
-2.2070079e-01 6.5407758e-02 -2.7814120e-02 
-2.1567432e-01 6.4715522e-02 -5.9587431e-03 
-2.2077686e-01 8.2253924e-02 -3.9085078e-02 
-2.1335820e-01 7.0873837e-02 3.8919162e-02 
-2.0816539e-01 1.1976306e-01 3.8099194e-02 
-2.0841065e-01 1.1425053e-01 3.8143391e-02 
-2.0858332e-01 1.0874249e-01 3.8178125e-02 
-2.0868413e-01 1.0323852e-01 3.8221767e-02 
-2.2081769e-01 7.6979421e-02 -3.9153733e-02 
-2.1550478e-01 6.4736468e-02 -1.1419869e-02 
-2.1299375e-01 6.5257914e-02 3.8207676e-02 
-2.1251653e-01 6.4348273e-02 3.2580375e-02 
-2.0871407e-01 9.7738087e-02 3.8272364e-02 
-2.1207101e-01 6.4360027e-02 2.7078349e-02 
-2.2072827e-01 6.5393651e-02 -3.3161847e-02 
-2.1165979e-01 6.4287358e-02 2.1547931e-02 
-2.0867427e-01 9.2240889e-02 3.8330174e-02 
-2.1470591e-01 1.1820099e-01 -3.8507024e-02 
-2.2083243e-01 7.1712525e-02 -3.9326450e-02 
-2.1488516e-01 1.1298697e-01 -3.8556820e-02 
-2.1128557e-01 6.4239372e-02 1.6034260e-02 
-2.1504537e-01 1.0777966e-01 -3.8594162e-02 
-2.1538742e-01 6.4771418e-02 -1.6857397e-02 
-2.0856611e-01 8.6745679e-02 3.8395056e-02 
-2.1518576e-01 1.0257464e-01 -3.8640067e-02 
-2.1095113e-01 6.4204257e-02 1.0529034e-02 
-2.1530527e-01 9.7367511e-02 -3.8692291e-02 
-2.2081865e-01 6.6309724e-02 -3.8604282e-02 
-2.0839112e-01 8.1254536e-02 3.8468275e-02 
-2.1065927e-01 6.4183307e-02 5.0380617e-03 
-2.1540261e-01 9.2154262e-02 -3.8751123e-02 
-2.1532520e-01 6.4819066e-02 -2.2266735e-02 
-2.1547626e-01 8.6930161e-02 -3.8816415e-02 
-2.1041285e-01 6.4176389e-02 -4.3685145e-04 
-2.0815105e-01 7.5756949e-02 3.8538257e-02 
-2.1532101e-01 6.4891292e-02 -2.7657952e-02 
-2.1552450e-01 8.1694090e-02 -3.8889447e-02 
-2.1021472e-01 6.4183520e-02 -5.8931664e-03 
-2.0784782e-01 7.0289210e-02 3.8711697e-02 
-2.0267191e-01 1.1878287e-01 3.7889566e-02 
-2.0292200e-01 1.1331341e-01 3.7931289e-02 
-2.0309898e-01 1.0784859e-01 3.7964880e-02 
-2.1554546e-01 7.6432452e-02 -3.8958517e-02 
-2.0320359e-01 1.0238784e-01 3.8007538e-02 
-2.1006771e-01 6.4204677e-02 -1.1328584e-02 
-2.0748354e-01 6.4712718e-02 3.8004620e-02 
-2.0700567e-01 6.3805361e-02 3.2415528e-02 
-2.1537756e-01 6.4878317e-02 -3.2987882e-02 
-2.0323676e-01 9.6930498e-02 3.8057439e-02 
-2.0656270e-01 6.3815894e-02 2.6950120e-02 
-2.1553712e-01 7.1179385e-02 -3.9131499e-02 
-2.0615716e-01 6.3742553e-02 2.1455171e-02 
-2.0949282e-01 1.1753137e-01 -3.8310282e-02 
-2.0319961e-01 9.1476111e-02 3.8114826e-02 
-2.0968100e-01 1.1232938e-01 -3.8357714e-02 
-2.0984573e-01 1.0713405e-01 -3.8393966e-02 
-2.0997460e-01 6.4239991e-02 -1.6742018e-02 
-2.0579162e-01 6.3694006e-02 1.5975606e-02 
-2.0998631e-01 1.0194115e-01 -3.8438932e-02 
-2.0309347e-01 8.6023294e-02 3.8179561e-02 
-2.0546871e-01 6.3658488e-02 1.0503097e-02 
-2.1010183e-01 9.6746446e-02 -3.8490492e-02 
-2.1549737e-01 6.5792153e-02 -3.8413572e-02 
-2.0519106e-01 6.3637291e-02 5.0433935e-03 
-2.0291984e-01 8.0573977e-02 3.8252903e-02 
-2.1019114e-01 9.1546103e-02 -3.8548921e-02 
-2.0993808e-01 6.4288158e-02 -2.2128842e-02 
-2.1025292e-01 8.6335540e-02 -3.8614074e-02 
-2.0496133e-01 6.3630282e-02 -4.0173080e-04 
-2.0268043e-01 7.5117562e-02 3.8323330e-02 
-2.0996071e-01 6.4361013e-02 -2.7499017e-02 
-2.1028567e-01 8.1113760e-02 -3.8687225e-02 
-2.0478215e-01 6.3637478e-02 -5.8297538e-03 
-2.0237712e-01 6.9690008e-02 3.8497052e-02 
-2.1028775e-01 7.5867334e-02 -3.8756721e-02 
-1.9722153e-01 1.1778466e-01 3.7672691e-02 
-1.9747667e-01 1.1235859e-01 3.7711847e-02 
-1.9765805e-01 1.0693731e-01 3.7744251e-02 
-2.0465611e-01 6.3658858e-02 -1.1238373e-02 
-2.1004490e-01 6.4349214e-02 -3.2809417e-02 
-1.9776639e-01 1.0152012e-01 3.7785887e-02 
-2.0201196e-01 6.4153321e-02 3.7794568e-02 
-2.0153231e-01 6.3248356e-02 3.2244082e-02 
-2.0109070e-01 6.3257621e-02 2.6815718e-02 
-1.9780258e-01 9.6106200e-02 3.7835063e-02 
-2.1025742e-01 7.0630304e-02 -3.8929973e-02 
-2.0068957e-01 6.3183586e-02 2.1356728e-02 
-2.0429314e-01 1.1682363e-01 -3.8106898e-02 
-2.0449013e-01 1.1163626e-01 -3.8151881e-02 
-2.0465942e-01 1.0645551e-01 -3.8187001e-02 
-2.0458573e-01 6.3694551e-02 -1.6626474e-02 
-1.9776774e-01 9.0694968e-02 3.7892009e-02 
-2.0033139e-01 6.3134458e-02 1.5911831e-02 
-2.0480041e-01 1.0127732e-01 -3.8230993e-02 
-2.1019285e-01 6.5260722e-02 -3.8216449e-02 
-2.0001863e-01 6.3098526e-02 1.0472691e-02 
-1.9766314e-01 8.5284905e-02 3.7956589e-02 
-2.0491231e-01 9.6097617e-02 -3.8281863e-02 
-2.0499412e-01 9.0912701e-02 -3.8339872e-02 
-2.0457344e-01 6.3743259e-02 -2.1989392e-02 
-1.9975378e-01 6.3077075e-02 5.0450091e-03 
-1.9749026e-01 7.9877789e-02 3.8030056e-02 
-2.0504469e-01 8.5718127e-02 -3.8404879e-02 
-1.9953931e-01 6.3069973e-02 -3.6946101e-04 
-1.9725076e-01 7.4462943e-02 3.8100942e-02 
-2.0462152e-01 6.3816768e-02 -2.7336977e-02 
-2.0506272e-01 8.0513002e-02 -3.8478149e-02 
-1.9937764e-01 6.3077240e-02 -5.7682044e-03 
-1.9694647e-01 6.9075985e-02 3.8274952e-02 
-2.0504680e-01 7.5284049e-02 -3.8548085e-02 
-1.9181461e-01 1.1676741e-01 3.7448291e-02 
-1.9207503e-01 1.1138514e-01 3.7484782e-02 
-1.9927116e-01 6.3098853e-02 -1.1148908e-02 
-2.0473208e-01 6.3806191e-02 -3.2626148e-02 
-1.9226089e-01 1.0600782e-01 3.7515954e-02 
-1.9657941e-01 6.3579565e-02 3.7577248e-02 
-1.9237290e-01 1.0063459e-01 3.7556528e-02 
-2.0499543e-01 7.0065190e-02 -3.8721610e-02 
-1.9609690e-01 6.2677100e-02 3.2065854e-02 
-1.9565550e-01 6.2685051e-02 2.6675045e-02 
-1.9910941e-01 1.1607847e-01 -3.7896603e-02 
-1.9241193e-01 9.5264519e-02 3.7604950e-02 
-1.9931509e-01 1.1090821e-01 -3.7939049e-02 
-1.9525759e-01 6.2610296e-02 2.1252582e-02 
-1.9948899e-01 1.0574455e-01 -3.7972996e-02 
-1.9922214e-01 6.3134941e-02 -1.6510422e-02 
-1.9963059e-01 1.0058356e-01 -3.8015978e-02 
-1.9490552e-01 6.2560569e-02 1.5842992e-02 
-1.9237906e-01 8.9896872e-02 3.7661438e-02 
-2.0490704e-01 6.4715277e-02 -3.8012654e-02 
-1.9973921e-01 9.5421325e-02 -3.8066131e-02 
-1.9460163e-01 6.2524209e-02 1.0437941e-02 
-1.9227553e-01 8.4530008e-02 3.7725855e-02 
-1.9981399e-01 9.0254258e-02 -3.8123704e-02 
-1.9923276e-01 6.3184213e-02 -2.1848041e-02 
-1.9434827e-01 6.2502496e-02 5.0430945e-03 
-1.9210280e-01 7.9165553e-02 3.7799450e-02 
-1.9985393e-01 8.5078035e-02 -3.8188556e-02 
-1.9414774e-01 6.2495302e-02 -3.3980459e-04 
-1.9930505e-01 6.3258400e-02 -2.7171500e-02 
-1.9186247e-01 7.3792758e-02 3.7870811e-02 
-1.9985793e-01 7.9891847e-02 -3.8261948e-02 
-1.9400227e-01 6.2502644e-02 -5.7082398e-03 
-1.9982478e-01 7.4682554e-02 -3.8332336e-02 
-1.9155634e-01 6.8446894e-02 3.8045115e-02 
-1.9944087e-01 6.3249092e-02 -3.2437771e-02 
-1.9391405e-01 6.2524501e-02 -1.1059880e-02 
-1.8645162e-01 1.1573013e-01 3.7216074e-02 
-1.8671753e-01 1.1039216e-01 3.7249802e-02 
-1.9975320e-01 6.9483936e-02 -3.8506141e-02 
-1.8690795e-01 1.0505929e-01 3.7279695e-02 
-1.9118640e-01 6.2991287e-02 3.7352381e-02 
-1.9069997e-01 6.2091430e-02 3.1880648e-02 
-1.8702358e-01 9.9730519e-02 3.7319167e-02 
-1.9025770e-01 6.2098017e-02 2.6527983e-02 
-1.9394403e-01 1.1529650e-01 -3.7679120e-02 
-1.9415832e-01 1.1014574e-01 -3.7718940e-02 
-1.9433689e-01 1.0500157e-01 -3.7751673e-02 
-1.9388515e-01 6.2561000e-02 -1.6393536e-02 
-1.8986186e-01 6.2022519e-02 2.1142698e-02 
-1.8706526e-01 9.4404792e-02 3.7366807e-02 
-1.9447929e-01 9.9860195e-02 -3.7793607e-02 
-1.9964186e-01 6.4155661e-02 -3.7801923e-02 
-1.8951472e-01 6.1972172e-02 1.5769126e-02 
-1.8703404e-01 8.9081243e-02 3.7422816e-02 
-1.9458493e-01 9.4717800e-02 -3.7843017e-02 
-1.8921851e-01 6.1935370e-02 1.0398953e-02 
-1.8693114e-01 8.3758103e-02 3.7487063e-02 
-1.9465310e-01 8.9570922e-02 -3.7900136e-02 
-1.9391750e-01 6.2610857e-02 -2.1704459e-02 
-1.8897542e-01 6.1913388e-02 5.0378145e-03 
-1.9468294e-01 8.4415332e-02 -3.7964826e-02 
-1.8675797e-01 7.8436853e-02 3.7560789e-02 
-1.8878761e-01 6.1906099e-02 -3.1254519e-04 
-1.9401292e-01 6.2685749e-02 -2.7002263e-02 
-1.9467351e-01 7.9250291e-02 -3.8038342e-02 
-1.8651611e-01 7.3106674e-02 3.7632640e-02 
-1.8865715e-01 6.1913520e-02 -5.6496014e-03 
-1.9462379e-01 7.4062783e-02 -3.8109195e-02 
-1.8620730e-01 6.7802482e-02 3.7807246e-02 
-1.9417300e-01 6.2677758e-02 -3.2243979e-02 
-1.8858602e-01 6.1935631e-02 -1.0970999e-02 
-1.9453271e-01 6.8886423e-02 -3.8283285e-02 
-1.8113309e-01 1.1467186e-01 3.6975741e-02 
-1.8140470e-01 1.0937876e-01 3.7006603e-02 
-1.8159977e-01 1.0409090e-01 3.7035169e-02 
-1.8583349e-01 6.2388316e-02 3.7119675e-02 
-1.8534214e-01 6.1491176e-02 3.1688254e-02 
-1.8879937e-01 1.1447820e-01 -3.7454165e-02 
-1.8902221e-01 1.0934925e-01 -3.7491266e-02 
-1.8489794e-01 6.1496350e-02 2.6374405e-02 
-1.8171896e-01 9.8807165e-02 3.7073497e-02 
-1.8920549e-01 1.0422690e-01 -3.7522740e-02 
-1.8857610e-01 6.1972559e-02 -1.6275505e-02 
-1.8450309e-01 6.1420083e-02 2.1027021e-02 
-1.8176312e-01 9.3526364e-02 3.7120325e-02 
-1.9439916e-01 6.3581711e-02 -3.7583979e-02 
-1.8934885e-01 9.9107461e-02 -3.7563589e-02 
-1.8415978e-01 6.1369095e-02 1.5690251e-02 
-1.8945181e-01 9.3987214e-02 -3.7612228e-02 
-1.8173325e-01 8.8247505e-02 3.7175838e-02 
-1.8387012e-01 6.1331836e-02 1.0355810e-02 
-1.8951374e-01 8.8862790e-02 -3.7668876e-02 
-1.8862913e-01 6.2023023e-02 -2.1558321e-02 
-1.8163054e-01 8.2968695e-02 3.7239907e-02 
-1.8363618e-01 6.1309577e-02 5.0293139e-03 
-1.8953393e-01 8.3730048e-02 -3.7733396e-02 
-1.8145637e-01 7.7691272e-02 3.7313767e-02 
-1.8345997e-01 6.1302190e-02 -2.8748551e-04 
-1.8874669e-01 6.2098647e-02 -2.6828943e-02 
-1.8951159e-01 7.8588301e-02 -3.7807038e-02 
-1.8121228e-01 7.2404352e-02 3.7386126e-02 
-1.8334340e-01 6.1309695e-02 -5.5920480e-03 
-1.8944588e-01 7.3424647e-02 -3.7878371e-02 
-1.8089998e-01 6.7142493e-02 3.7561042e-02 
-1.8893019e-01 6.2092021e-02 -3.2044465e-02 
-1.8328830e-01 6.1332071e-02 -1.0881989e-02 
-1.8933591e-01 6.8272517e-02 -3.8052753e-02 
-1.7585963e-01 1.1359164e-01 3.6726980e-02 
-1.7613715e-01 1.0834406e-01 3.6754870e-02 
-1.8052136e-01 6.1770475e-02 3.6878832e-02 
-1.8002410e-01 6.0876163e-02 3.1488452e-02 
-1.8367768e-01 1.1362395e-01 -3.7221441e-02 
-1.7633695e-01 1.0310186e-01 3.6782061e-02 
-1.8390902e-01 1.0851907e-01 -3.7255728e-02 
-1.7957696e-01 6.0879872e-02 2.6214165e-02 
-1.8329635e-01 6.1369443e-02 -1.6156027e-02 
-1.8409708e-01 1.0342080e-01 -3.7285899e-02 
-1.7645967e-01 9.7863808e-02 3.6819203e-02 
-1.8918078e-01 6.2993258e-02 -3.7358538e-02 
-1.7918208e-01 6.0802809e-02 2.0905482e-02 
-1.8424157e-01 9.8325543e-02 -3.7325625e-02 
-1.7650613e-01 9.2628590e-02 3.6865188e-02 
-1.7884155e-01 6.0751157e-02 1.5606369e-02 
-1.8434208e-01 9.3229678e-02 -3.7373465e-02 
-1.7647732e-01 8.7395089e-02 3.6920185e-02 
-1.7855739e-01 6.0713426e-02 1.0308579e-02 
-1.8439810e-01 8.8129910e-02 -3.7429623e-02 
-1.8336911e-01 6.1420538e-02 -2.1409315e-02 
-1.7637439e-01 8.2161292e-02 3.6984069e-02 
-1.7833155e-01 6.0690881e-02 5.0177197e-03 
-1.8440905e-01 8.3022171e-02 -3.7493967e-02 
-1.7619867e-01 7.6928395e-02 3.7058066e-02 
-1.7816590e-01 6.0683395e-02 -2.6444535e-04 
-1.8350797e-01 6.1496920e-02 -2.6651223e-02 
-1.8437426e-01 7.7905813e-02 -3.7567737e-02 
-1.7595168e-01 7.1685456e-02 3.7130950e-02 
-1.7806222e-01 6.0690988e-02 -5.5353539e-03 
-1.8429305e-01 7.2768038e-02 -3.7639565e-02 
-1.8371412e-01 6.1491710e-02 -3.1838916e-02 
-1.7563509e-01 6.6466664e-02 3.7306186e-02 
-1.7802218e-01 6.0713639e-02 -1.0792587e-02 
-1.8416471e-01 6.7642071e-02 -3.7814246e-02 
-1.7858118e-01 1.1273406e-01 -3.6980644e-02 
-1.7063192e-01 1.1248855e-01 3.6469469e-02 
-1.7525074e-01 6.1137581e-02 3.6629538e-02 
-1.7882099e-01 1.0765543e-01 -3.7012019e-02 
-1.7091556e-01 1.0728720e-01 3.6494279e-02 
-1.7474661e-01 6.0246208e-02 3.1281006e-02 
-1.7804729e-01 6.0751472e-02 -1.6034812e-02 
-1.7901390e-01 1.0258343e-01 -3.7040841e-02 
-1.7112018e-01 1.0209138e-01 3.6520044e-02 
-1.8398853e-01 6.2390130e-02 -3.7125307e-02 
-1.7429556e-01 6.0248399e-02 2.6047104e-02 
-1.7915966e-01 9.7514559e-02 -3.7079403e-02 
-1.7124639e-01 9.6899736e-02 3.6555956e-02 
-1.7389967e-01 6.0170513e-02 2.0777995e-02 
-1.7925795e-01 9.2445251e-02 -3.7126415e-02 
-1.7129500e-01 9.1710831e-02 3.6601066e-02 
-1.7356095e-01 6.0118174e-02 1.5517464e-02 
-1.7930836e-01 8.7372286e-02 -3.7182066e-02 
-1.7813894e-01 6.0803221e-02 -2.1257130e-02 
-1.7126696e-01 8.6523429e-02 3.6655528e-02 
-1.7328130e-01 6.0079955e-02 1.0257312e-02 
-1.7931040e-01 8.2291654e-02 -3.7246225e-02 
-1.7116340e-01 8.1335401e-02 3.6719220e-02 
-1.7306259e-01 6.0057114e-02 5.0031426e-03 
-1.7829833e-01 6.0880390e-02 -2.6468785e-02 
-1.7926356e-01 7.7202735e-02 -3.7320128e-02 
-1.7098562e-01 7.6147805e-02 3.6793359e-02 
-1.7290656e-01 6.0049526e-02 -2.4325998e-04 
-1.7916727e-01 7.2092825e-02 -3.7392466e-02 
-1.7073508e-01 7.0949643e-02 3.6866785e-02 
-1.7281484e-01 6.0057211e-02 -5.4793074e-03 
-1.7852648e-01 6.0876648e-02 -3.1627018e-02 
-1.7902099e-01 6.6994926e-02 -3.7567454e-02 
-1.7041342e-01 6.5774730e-02 3.7042350e-02 
-1.7278897e-01 6.0080148e-02 -1.0702543e-02 
-1.7351202e-01 1.1180875e-01 -3.6731458e-02 
-1.7376029e-01 1.0675851e-01 -3.6759819e-02 
-1.7882418e-01 6.1772147e-02 -3.6883980e-02 
-1.7002245e-01 6.0489442e-02 3.6371473e-02 
-1.6951053e-01 5.9601123e-02 3.1065670e-02 
-1.6545073e-01 1.1136167e-01 3.6202874e-02 
-1.7395810e-01 1.0171493e-01 -3.6787245e-02 
-1.7283031e-01 6.0118460e-02 -1.5911579e-02 
-1.6574069e-01 1.0620734e-01 3.6224492e-02 
-1.6905465e-01 5.9601741e-02 2.5873051e-02 
-1.6595020e-01 1.0105869e-01 3.6248779e-02 
-1.7410528e-01 9.6674569e-02 -3.6824602e-02 
-1.6865682e-01 5.9523002e-02 2.0644459e-02 
-1.6607988e-01 9.5914245e-02 3.6283416e-02 
-1.7420155e-01 9.1633944e-02 -3.6870757e-02 
-1.6831896e-01 5.9469953e-02 1.5423504e-02 
-1.6613049e-01 9.0772453e-02 3.6327620e-02 
-1.7424660e-01 8.6589880e-02 -3.6925882e-02 
-1.7294010e-01 6.0170888e-02 -2.1101464e-02 
-1.6804292e-01 5.9431229e-02 1.0202042e-02 
-1.6610296e-01 8.5631963e-02 3.6381527e-02 
-1.7424005e-01 8.1538418e-02 -3.6989850e-02 
-1.6783042e-01 5.9408083e-02 4.9856779e-03 
-1.6599839e-01 8.0490533e-02 3.6445018e-02 
-1.7311937e-01 6.0248872e-02 -2.6281313e-02 
-1.7418148e-01 7.6478951e-02 -3.7063888e-02 
-1.6768312e-01 5.9400390e-02 -2.2377864e-04 
-1.6581803e-01 7.5349084e-02 3.6519303e-02 
-1.7407047e-01 7.1398861e-02 -3.7136754e-02 
-1.6760252e-01 5.9408171e-02 -5.4237088e-03 
-1.6556332e-01 7.0196568e-02 3.6593291e-02 
-1.7336897e-01 6.0246650e-02 -3.1408450e-02 
-1.7390661e-01 6.6330911e-02 -3.7312058e-02 
-1.6759002e-01 5.9431405e-02 -1.0611615e-02 
-1.6523584e-01 6.5066418e-02 3.6769197e-02 
-1.6847229e-01 1.1084817e-01 -3.6473557e-02 
-1.7368952e-01 6.1139122e-02 -3.6634243e-02 
-1.6872902e-01 1.0582840e-01 -3.6498800e-02 
-1.6764686e-01 5.9470214e-02 -1.5786052e-02 
-1.6893181e-01 1.0081533e-01 -3.6524781e-02 
-1.6483738e-01 5.9825861e-02 3.6104301e-02 
-1.6431677e-01 5.8940711e-02 3.0842184e-02 
-1.6031687e-01 1.1021011e-01 3.5926849e-02 
-1.6061335e-01 1.0510366e-01 3.5945160e-02 
-1.6385517e-01 5.8939700e-02 2.5691816e-02 
-1.6908053e-01 9.5805582e-02 -3.6560891e-02 
-1.6082786e-01 1.0000303e-01 3.5967915e-02 
-1.6345451e-01 5.8860079e-02 2.0504760e-02 
-1.6917498e-01 9.0795722e-02 -3.6606158e-02 
-1.6096097e-01 9.4906641e-02 3.6001231e-02 
-1.6311665e-01 5.8806295e-02 1.5324444e-02 
-1.6101344e-01 8.9812832e-02 3.6044495e-02 
-1.6921490e-01 8.5782617e-02 -3.6660738e-02 
-1.6777412e-01 5.9523344e-02 -2.0942015e-02 
-1.6284334e-01 5.8767048e-02 1.0142789e-02 
-1.6098617e-01 8.4720134e-02 3.6097827e-02 
-1.6920001e-01 8.0762349e-02 -3.6724507e-02 
-1.6263623e-01 5.8743587e-02 4.9654071e-03 
-1.6088022e-01 7.9626199e-02 3.6161110e-02 
-1.6797268e-01 5.9602173e-02 -2.6088488e-02 
-1.6913000e-01 7.5734316e-02 -3.6798685e-02 
-1.6249684e-01 5.8735786e-02 -2.0586325e-04 
-1.6069680e-01 7.4531813e-02 3.6235546e-02 
-1.6900457e-01 7.0685979e-02 -3.6872096e-02 
-1.6242659e-01 5.8743667e-02 -5.3683694e-03 
-1.6043731e-01 6.9425882e-02 3.6310116e-02 
-1.6824326e-01 5.9601526e-02 -3.1182886e-02 
-1.6882342e-01 6.5649841e-02 -3.7047727e-02 
-1.6242674e-01 5.8767209e-02 -1.0519570e-02 
-1.6010329e-01 6.4341451e-02 3.6486374e-02 
-1.6858630e-01 6.0490863e-02 -3.6375771e-02 
-1.6346406e-01 1.0985239e-01 -3.6206605e-02 
-1.6372926e-01 1.0486513e-01 -3.6228620e-02 
-1.6249840e-01 5.8806533e-02 -1.5657962e-02 
-1.6393711e-01 9.9884635e-02 -3.6253105e-02 
-1.5969648e-01 5.9146633e-02 3.5827677e-02 
-1.5916633e-01 5.8264769e-02 3.0610274e-02 
-1.6408749e-01 9.4907557e-02 -3.6287925e-02 
-1.5869814e-01 5.8262071e-02 2.5503201e-02 
-1.5523123e-01 1.0903299e-01 3.5641035e-02 
-1.5553444e-01 1.0397534e-01 3.5655920e-02 
-1.5829382e-01 5.8181537e-02 2.0358767e-02 
-1.6418028e-01 8.9930505e-02 -3.6332273e-02 
-1.5575402e-01 9.8923648e-02 3.5677089e-02 
-1.5589056e-01 9.3876241e-02 3.5709036e-02 
-1.5795513e-01 5.8126992e-02 1.5220222e-02 
-1.6421528e-01 8.4950385e-02 -3.6386289e-02 
-1.6264253e-01 5.8860392e-02 -2.0778484e-02 
-1.5594477e-01 8.8831345e-02 3.5751327e-02 
-1.5768375e-01 5.8087206e-02 1.0079559e-02 
-1.6419228e-01 7.9963306e-02 -3.6449852e-02 
-1.5591752e-01 8.3787386e-02 3.5804062e-02 
-1.5748124e-01 5.8063418e-02 4.9423987e-03 
-1.6285989e-01 5.8940095e-02 -2.5889991e-02 
-1.5580983e-01 7.8741911e-02 3.5867129e-02 
-1.6411108e-01 7.4968665e-02 -3.6524174e-02 
-1.5734902e-01 5.8055506e-02 -1.8938727e-04 
-1.5562289e-01 7.3695571e-02 3.5941723e-02 
-1.6397145e-01 6.9953995e-02 -3.6598149e-02 
-1.5728840e-01 5.8063491e-02 -5.3131098e-03 
-1.6315104e-01 5.8941080e-02 -3.0949993e-02 
-1.5535804e-01 6.8637234e-02 3.6016895e-02 
-1.6377323e-01 6.4951522e-02 -3.6774117e-02 
-1.5730054e-01 5.8087352e-02 -1.0426183e-02 
-1.5501678e-01 6.3599545e-02 3.6193518e-02 
-1.6351629e-01 5.9827173e-02 -3.6108225e-02 
-1.5848934e-01 1.0882143e-01 -3.5930252e-02 
-1.5876306e-01 1.0386871e-01 -3.5948928e-02 
-1.5897603e-01 9.8922799e-02 -3.5971865e-02 
-1.5738643e-01 5.8127210e-02 -1.5527042e-02 
-1.5460079e-01 5.8451546e-02 3.5541243e-02 
-1.5912820e-01 9.3980410e-02 -3.6005349e-02 
-1.5406026e-01 5.7573087e-02 3.0369655e-02 
-1.5358469e-01 5.7568643e-02 2.5306988e-02 
-1.5019477e-01 1.0782946e-01 3.5345062e-02 
-1.5921947e-01 8.9038180e-02 -3.6048746e-02 
-1.5050489e-01 1.0282159e-01 3.5356398e-02 
-1.5317590e-01 5.7487164e-02 2.0206337e-02 
-1.5072965e-01 9.7819811e-02 3.5375923e-02 
-1.5924973e-01 8.4093039e-02 -3.6102179e-02 
-1.5754692e-01 5.8181824e-02 -2.0610575e-02 
-1.5283561e-01 5.7431832e-02 1.5110764e-02 
-1.5086960e-01 9.2822368e-02 3.5406453e-02 
-1.5092543e-01 8.7827381e-02 3.5447735e-02 
-1.5256540e-01 5.7391487e-02 1.0012345e-02 
-1.5921882e-01 7.9141122e-02 -3.6165528e-02 
-1.5089798e-01 8.2833169e-02 3.5499853e-02 
-1.5236676e-01 5.7367361e-02 4.9167088e-03 
-1.5778263e-01 5.8262434e-02 -2.5685500e-02 
-1.5912662e-01 7.4181810e-02 -3.6239999e-02 
-1.5078823e-01 7.7837178e-02 3.5562697e-02 
-1.5224102e-01 5.7359335e-02 -1.7423462e-04 
-1.5897300e-01 6.9202707e-02 -3.6314558e-02 
-1.5059733e-01 7.2839933e-02 3.5637453e-02 
-1.5218938e-01 5.7367429e-02 -5.2577592e-03 
-1.5809401e-01 5.8265108e-02 -3.0709434e-02 
-1.5032655e-01 6.7830264e-02 3.5713249e-02 
-1.5875789e-01 6.4235745e-02 -3.6490874e-02 
-1.5221290e-01 5.7391621e-02 -1.0331233e-02 
-1.4997738e-01 6.2840412e-02 3.5890251e-02 
-1.5848126e-01 5.9147843e-02 -3.5831258e-02 
-1.5355014e-01 1.0775525e-01 -3.5644138e-02 
-1.5383240e-01 1.0283905e-01 -3.5659357e-02 
-1.5405058e-01 9.7929723e-02 -3.5680693e-02 
-1.5231249e-01 5.7432032e-02 -1.5393031e-02 
-1.5420465e-01 9.3024016e-02 -3.5712794e-02 
-1.4955142e-01 5.7740379e-02 3.5244628e-02 
-1.4899971e-01 5.6865448e-02 3.0120025e-02 
-1.4851596e-01 5.6859196e-02 2.5102950e-02 
-1.5429456e-01 8.8118593e-02 -3.5755208e-02 
-1.4520849e-01 1.0659868e-01 3.5038546e-02 
-1.4810195e-01 5.6776739e-02 2.0047309e-02 
-1.4552572e-01 1.0164162e-01 3.5046205e-02 
-1.4575575e-01 9.6690795e-02 3.5064028e-02 
-1.5432023e-01 8.3210404e-02 -3.5808037e-02 
-1.5248886e-01 5.7487427e-02 -2.0437988e-02 
-1.4775933e-01 5.6720592e-02 1.4995982e-02 
-1.4589911e-01 9.1744357e-02 3.5093089e-02 
-1.4748960e-01 5.6679669e-02 9.9411245e-03 
-1.5428159e-01 7.8295601e-02 -3.5871166e-02 
-1.4595646e-01 8.6800329e-02 3.5133328e-02 
-1.4592861e-01 8.1856932e-02 3.5184807e-02 
-1.4729415e-01 5.6655194e-02 4.8883823e-03 
-1.5274255e-01 5.7568976e-02 -2.5474687e-02 
-1.5417856e-01 7.3373542e-02 -3.5945791e-02 
-1.4581649e-01 7.6911515e-02 3.5247421e-02 
-1.4717424e-01 5.6647050e-02 -1.6029881e-04 
-1.5401109e-01 6.8431898e-02 -3.6020954e-02 
-1.4562120e-01 7.1964474e-02 3.5322345e-02 
-1.5307389e-01 5.7573399e-02 -3.0460859e-02 
-1.4713099e-01 5.6655256e-02 -5.2021539e-03 
-1.5377921e-01 6.3502292e-02 -3.6197631e-02 
-1.4534398e-01 6.7004612e-02 3.5398788e-02 
-1.4716536e-01 5.6679792e-02 -1.0234505e-02 
-1.5348298e-01 5.8452663e-02 -3.5544509e-02 
-1.4498623e-01 6.2063754e-02 3.5576182e-02 
-1.4864842e-01 1.0665376e-01 -3.5347889e-02 
-1.4893928e-01 1.0177604e-01 -3.5359532e-02 
-1.4916275e-01 9.6905273e-02 -3.5379210e-02 
-1.4727815e-01 5.6720776e-02 -1.5255666e-02 
-1.4931883e-01 9.2038215e-02 -3.5409882e-02 
-1.4454954e-01 5.7012906e-02 3.4937446e-02 
-1.4398587e-01 5.6141627e-02 2.9861070e-02 
-1.4940750e-01 8.7171564e-02 -3.5451278e-02 
-1.4349322e-01 5.6133502e-02 2.4890841e-02 
-1.4307328e-01 5.6050034e-02 1.9881512e-02 
-1.4027346e-01 1.0533983e-01 3.4721086e-02 
-1.4942874e-01 8.2302280e-02 -3.5503481e-02 
-1.4747000e-01 5.6776981e-02 -2.0260422e-02 
-1.4059799e-01 1.0043467e-01 3.4724939e-02 
-1.4083339e-01 9.5535890e-02 3.4740999e-02 
-1.4272763e-01 5.5993043e-02 1.4875772e-02 
-1.4098016e-01 9.0641552e-02 3.4768541e-02 
-1.4938250e-01 7.7426526e-02 -3.5566383e-02 
-1.4245771e-01 5.5951522e-02 9.8658660e-03 
-1.4103895e-01 8.5749591e-02 3.4807699e-02 
-1.4774135e-01 5.6859502e-02 -2.5257221e-02 
-1.4926878e-01 7.2543635e-02 -3.5641168e-02 
-1.4101051e-01 8.0858131e-02 3.4858517e-02 
-1.4226484e-01 5.5926687e-02 4.8574533e-03 
-1.4089574e-01 7.5964433e-02 3.4920892e-02 
-1.4215018e-01 5.5918421e-02 -1.4748206e-04 
-1.4908760e-01 6.7641337e-02 -3.5716956e-02 
-1.4809242e-01 5.6865735e-02 -3.0203913e-02 
-1.4069567e-01 7.1068766e-02 3.4995992e-02 
-1.4211476e-01 5.5926744e-02 -5.1461365e-03 
-1.4883903e-01 6.2750932e-02 -3.5894008e-02 
-1.4041149e-01 6.6159911e-02 3.5073106e-02 
-1.4215948e-01 5.5951635e-02 -1.0135787e-02 
-1.4852323e-01 5.7741410e-02 -3.5247604e-02 
-1.4004456e-01 6.1269270e-02 3.5250908e-02 
-1.4378614e-01 1.0551684e-01 -3.5041118e-02 
-1.4408565e-01 1.0067955e-01 -3.5049060e-02 
-1.4431449e-01 9.5849276e-02 -3.5067024e-02 
-1.4228504e-01 5.5993212e-02 -1.5114688e-02 
-1.4447269e-01 9.1022817e-02 -3.5096216e-02 
-1.3959639e-01 5.6268890e-02 3.4619301e-02 
-1.4456026e-01 8.6196881e-02 -3.5136559e-02 
-1.3902004e-01 5.5401388e-02 2.9592460e-02 
-1.3851776e-01 5.5391327e-02 2.4670403e-02 
-1.3809122e-01 5.5306811e-02 1.9708758e-02 
-1.4457719e-01 8.1368438e-02 -3.5188117e-02 
-1.4249201e-01 5.6050256e-02 -2.0077576e-02 
-1.3539080e-01 1.0405212e-01 3.4392272e-02 
-1.3572280e-01 9.9199997e-02 3.4392183e-02 
-1.3774191e-01 5.5248948e-02 1.4750020e-02 
-1.3596368e-01 9.4354403e-02 3.4406418e-02 
-1.4452349e-01 7.6533658e-02 -3.5250783e-02 
-1.3611389e-01 8.9513310e-02 3.4432386e-02 
-1.3747120e-01 5.5206808e-02 9.7865240e-03 
-1.3617404e-01 8.4674572e-02 3.4470427e-02 
-1.4278073e-01 5.6133784e-02 -2.5032762e-02 
-1.4439920e-01 7.1691840e-02 -3.5325736e-02 
-1.3728031e-01 5.5181600e-02 4.8239453e-03 
-1.3614485e-01 7.9836226e-02 3.4520561e-02 
-1.3602716e-01 7.4995444e-02 3.4582690e-02 
-1.3717036e-01 5.5173208e-02 -1.3569460e-04 
-1.4420439e-01 6.6830775e-02 -3.5402172e-02 
-1.4315135e-01 5.6141890e-02 -2.9938229e-02 
-1.3582194e-01 7.0152379e-02 3.4657973e-02 
-1.3714228e-01 5.5181652e-02 -5.0895550e-03 
-1.4393918e-01 6.1981423e-02 -3.5579613e-02 
-1.3553034e-01 6.5295790e-02 3.4735783e-02 
-1.3719689e-01 5.5206912e-02 -1.0034869e-02 
-1.4360381e-01 5.7013856e-02 -3.4940156e-02 
-1.3515364e-01 6.0456649e-02 3.4914010e-02 
-1.3896520e-01 1.0434433e-01 -3.4723426e-02 
-1.3927343e-01 9.9549380e-02 -3.4727538e-02 
-1.3950774e-01 9.4761533e-02 -3.4743728e-02 
-1.3733483e-01 5.5249104e-02 -1.4969835e-02 
-1.3966817e-01 8.9977601e-02 -3.4771389e-02 
-1.3975475e-01 8.5194308e-02 -3.4810644e-02 
-1.3469328e-01 5.5508088e-02 3.4289778e-02 
-1.3410354e-01 5.4644492e-02 2.9313852e-02 
-1.3359099e-01 5.4632426e-02 2.4441362e-02 
-1.3755659e-01 5.5307016e-02 -1.9889142e-02 
-1.3976751e-01 8.0408630e-02 -3.4861534e-02 
-1.3315722e-01 5.4546827e-02 1.9528844e-02 
-1.3056166e-01 1.0273479e-01 3.4051675e-02 
-1.3090133e-01 9.7936884e-02 3.4047504e-02 
-1.3280365e-01 5.4488061e-02 1.4618595e-02 
-1.3114778e-01 9.3145656e-02 3.4059851e-02 
-1.3970647e-01 7.5616738e-02 -3.4923958e-02 
-1.3130146e-01 8.8358998e-02 3.4084190e-02 
-1.3253157e-01 5.4445281e-02 9.7030414e-03 
-1.3786244e-01 5.5391587e-02 -2.4800967e-02 
-1.3136292e-01 8.3574688e-02 3.4121074e-02 
-1.3957171e-01 7.0817897e-02 -3.4999084e-02 
-1.3234214e-01 5.4419687e-02 4.7878724e-03 
-1.3133283e-01 7.8790679e-02 3.4170501e-02 
-1.3936333e-01 6.5999953e-02 -3.5076192e-02 
-1.3223639e-01 5.4411165e-02 -1.2485394e-04 
-1.3121198e-01 7.4004065e-02 3.4232378e-02 
-1.3825247e-01 5.5401631e-02 -2.9663432e-02 
-1.3221519e-01 5.4419735e-02 -5.0322619e-03 
-1.3100129e-01 6.9214879e-02 3.4307852e-02 
-1.3908152e-01 6.1193513e-02 -3.5254038e-02 
-1.3070183e-01 6.4411872e-02 3.4386384e-02 
-1.3227928e-01 5.4445376e-02 -9.9315435e-03 
-1.3872654e-01 5.6269766e-02 -3.4621765e-02 
-1.3031480e-01 5.9625576e-02 3.4565052e-02 
-1.3418753e-01 1.0313603e-01 -3.4394397e-02 
-1.3450455e-01 9.8385329e-02 -3.4394546e-02 
-1.3474442e-01 9.3641817e-02 -3.4408901e-02 
-1.3242925e-01 5.4488204e-02 -1.4820844e-02 
-1.3490719e-01 8.8902324e-02 -3.4434979e-02 
-1.3499291e-01 8.4163588e-02 -3.4473108e-02 
-1.2984159e-01 5.4730246e-02 3.3948451e-02 
-1.2923779e-01 5.3870687e-02 2.9024886e-02 
-1.2871435e-01 5.3856548e-02 2.4203427e-02 
-1.3500161e-01 7.9422587e-02 -3.4523309e-02 
-1.3266550e-01 5.4547015e-02 -1.9694808e-02 
-1.2827276e-01 5.3769827e-02 1.9341555e-02 
-1.2791438e-01 5.3710128e-02 1.4481355e-02 
-1.3493334e-01 7.4675491e-02 -3.4585484e-02 
-1.2578727e-01 1.0138708e-01 3.3698851e-02 
-1.2613478e-01 9.6644631e-02 3.3690456e-02 
-1.2638691e-01 9.1908992e-02 3.3700848e-02 
-1.2764042e-01 5.3666684e-02 9.6153493e-03 
-1.2654409e-01 8.7178000e-02 3.3723502e-02 
-1.3298827e-01 5.4632666e-02 -2.4561480e-02 
-1.3478820e-01 6.9921526e-02 -3.4660791e-02 
-1.2660681e-01 8.2449364e-02 3.3759190e-02 
-1.2745196e-01 5.3640691e-02 4.7492390e-03 
-1.2657571e-01 7.7720961e-02 3.3807887e-02 
-1.3456631e-01 6.5148596e-02 -3.4738595e-02 
-1.2734994e-01 5.3632035e-02 -1.1488431e-04 
-1.2645150e-01 7.2989809e-02 3.3869503e-02 
-1.3339758e-01 5.4644715e-02 -2.9379133e-02 
-1.3426789e-01 6.0386939e-02 -3.4916862e-02 
-1.2733520e-01 5.3640736e-02 -4.9741133e-03 
-1.2623504e-01 6.8255832e-02 3.3945176e-02 
-1.2740839e-01 5.3666772e-02 -9.8256031e-03 
-1.3389325e-01 5.5508896e-02 -3.4292018e-02 
-1.2592731e-01 6.3507777e-02 3.4024457e-02 
-1.2945502e-01 1.0189173e-01 -3.4053603e-02 
-1.2978091e-01 9.7187165e-02 -3.4049651e-02 
-1.2552944e-01 5.8775726e-02 3.4203587e-02 
-1.3002644e-01 9.2489882e-02 -3.4062108e-02 
-1.2757005e-01 5.3710259e-02 -1.4667449e-02 
-1.3019166e-01 8.7796726e-02 -3.4086549e-02 
-1.3027663e-01 8.3104446e-02 -3.4123514e-02 
-1.2504274e-01 5.3935105e-02 3.3594877e-02 
-1.2442428e-01 5.3079715e-02 2.8725185e-02 
-1.3028139e-01 7.8410021e-02 -3.4173003e-02 
-1.2782053e-01 5.3770000e-02 -1.9494257e-02 
-1.2388938e-01 5.3063432e-02 2.3956295e-02 
-1.2343944e-01 5.2975550e-02 1.9146657e-02 
-1.3020601e-01 7.3709623e-02 -3.4234921e-02 
-1.2307574e-01 5.2914884e-02 1.4338142e-02 
-1.2106886e-01 1.0000831e-01 3.3333342e-02 
-1.2142438e-01 9.5322564e-02 3.3320574e-02 
-1.2168231e-01 9.0643775e-02 3.3328943e-02 
-1.2279941e-01 5.2870755e-02 9.5233675e-03 
-1.2816003e-01 5.3856769e-02 -2.4313940e-02 
-1.3005056e-01 6.9002435e-02 -3.4310417e-02 
-1.2184303e-01 8.5969717e-02 3.3349855e-02 
-1.2190701e-01 8.1298038e-02 3.3384306e-02 
-1.2261146e-01 5.2844349e-02 4.7080406e-03 
-1.2981522e-01 6.4276416e-02 -3.4388944e-02 
-1.2187480e-01 7.6626547e-02 3.3432248e-02 
-1.2251277e-01 5.2835555e-02 -1.0571608e-04 
-1.2858853e-01 5.3870893e-02 -2.9084933e-02 
-1.2174706e-01 7.1952197e-02 3.3493597e-02 
-1.2950019e-01 5.9561425e-02 -3.4567650e-02 
-1.2250409e-01 5.2844390e-02 -4.9149685e-03 
-1.2152456e-01 6.7274803e-02 3.3569479e-02 
-1.2910580e-01 5.4730991e-02 -3.3950484e-02 
-1.2258603e-01 5.2870836e-02 -9.7168398e-03 
-1.2120820e-01 6.2583119e-02 3.3649538e-02 
-1.2476955e-01 1.0061119e-01 -3.3700598e-02 
-1.2510439e-01 9.5954642e-02 -3.3692404e-02 
-1.2535567e-01 9.1305466e-02 -3.3702897e-02 
-1.2275908e-01 5.2915005e-02 -1.4509380e-02 
-1.2079903e-01 5.7906769e-02 3.3829148e-02 
-1.2552347e-01 8.6660527e-02 -3.3725645e-02 
-1.2560782e-01 8.2016590e-02 -3.3761407e-02 
-1.2029826e-01 5.3122393e-02 3.3228597e-02 
-1.1966457e-01 5.2271308e-02 2.8414358e-02 
-1.2560877e-01 7.7370633e-02 -3.3810161e-02 
-1.2302355e-01 5.2975709e-02 -1.9287164e-02 
-1.1911767e-01 5.2252806e-02 2.3699642e-02 
-1.1865889e-01 5.2163723e-02 1.8943904e-02 
-1.2552637e-01 7.2718830e-02 -3.3871815e-02 
-1.1828941e-01 5.2102057e-02 1.4188787e-02 
-1.1640771e-01 9.8597788e-02 3.2954672e-02 
-1.1677141e-01 9.3970043e-02 3.2937379e-02 
-1.2337961e-01 5.3063635e-02 -2.4057973e-02 
-1.1801029e-01 5.2057220e-02 9.4270036e-03 
-1.1703525e-01 8.9349393e-02 3.2943655e-02 
-1.2536071e-01 6.8060317e-02 -3.3947509e-02 
-1.1719958e-01 8.4733566e-02 3.2962764e-02 
-1.1782244e-01 5.2030387e-02 4.6642638e-03 
-1.1726481e-01 8.0120159e-02 3.2995936e-02 
-1.2511195e-01 6.3383116e-02 -3.4026786e-02 
-1.1723142e-01 7.5506922e-02 3.3043101e-02 
-1.1772668e-01 5.2021449e-02 -9.7285242e-05 
-1.2382720e-01 5.3079905e-02 -2.8780420e-02 
-1.1710002e-01 7.0890748e-02 3.3104174e-02 
-1.2478030e-01 5.8716688e-02 -3.4205950e-02 
-1.1772370e-01 5.2030425e-02 -4.8546886e-03 
-1.1687126e-01 6.6271355e-02 3.3180275e-02 
-1.2436609e-01 5.3935792e-02 -3.3596720e-02 
-1.1781407e-01 5.2057295e-02 -9.6050442e-03 
-1.1654597e-01 6.1637507e-02 3.3261142e-02 
-1.2013298e-01 9.9294182e-02 -3.3334923e-02 
-1.2047685e-01 9.4687505e-02 -3.3322340e-02 
-1.2073400e-01 9.0088296e-02 -3.3330801e-02 
-1.1799822e-01 5.2102169e-02 -1.4346363e-02 
-1.1612508e-01 5.7018366e-02 3.3441254e-02 
-1.2090449e-01 8.5493441e-02 -3.3351799e-02 
-1.2098835e-01 8.0899718e-02 -3.3386319e-02 
-1.1560970e-01 5.2291832e-02 3.2849136e-02 
-1.2098562e-01 7.6304111e-02 -3.3434314e-02 
-1.1827645e-01 5.2163870e-02 -1.9073196e-02 
-1.1496025e-01 5.1445187e-02 2.8091993e-02 
-1.1440090e-01 5.1424392e-02 2.3433128e-02 
-1.1393285e-01 5.1334067e-02 1.8733030e-02 
-1.2089632e-01 7.1702792e-02 -3.3495698e-02 
-1.1355719e-01 5.1271366e-02 1.4033104e-02 
-1.1180514e-01 9.7154888e-02 3.2562348e-02 
-1.1864890e-01 5.2252993e-02 -2.3793197e-02 
-1.2072055e-01 6.7094855e-02 -3.3571599e-02 
-1.1217718e-01 9.2586458e-02 3.2540371e-02 
-1.1327488e-01 5.1225795e-02 9.3261541e-03 
-1.1244705e-01 8.8025261e-02 3.2544483e-02 
-1.1261505e-01 8.3468988e-02 3.2561729e-02 
-1.1308676e-01 5.1198521e-02 4.6178866e-03 
-1.2045842e-01 6.2468383e-02 -3.3651654e-02 
-1.1268155e-01 7.8915194e-02 3.2593580e-02 
-1.1264697e-01 7.4361580e-02 3.2639941e-02 
-1.1911550e-01 5.2271482e-02 -2.8465167e-02 
-1.1299359e-01 5.1189434e-02 -8.9532962e-05 
-1.2011014e-01 5.7852432e-02 -3.3831296e-02 
-1.1251180e-01 6.9804991e-02 3.2700733e-02 
-1.1299597e-01 5.1198555e-02 -4.7931366e-03 
-1.1227662e-01 6.5245050e-02 3.2777063e-02 
-1.1967603e-01 5.3123026e-02 -3.3230266e-02 
-1.1309445e-01 5.1225864e-02 -9.4900049e-03 
-1.1194213e-01 6.0670547e-02 3.2858769e-02 
-1.1554717e-01 9.7940458e-02 -3.2956100e-02 
-1.1590015e-01 9.3385493e-02 -3.2938976e-02 
-1.1616328e-01 8.8838095e-02 -3.2945338e-02 
-1.1328944e-01 5.1271469e-02 -1.4178118e-02 
-1.1150915e-01 5.6110171e-02 3.3039406e-02 
-1.1633659e-01 8.4295172e-02 -3.2964526e-02 
-1.1642010e-01 7.9753522e-02 -3.2997762e-02 
-1.1641382e-01 7.5210133e-02 -3.3044974e-02 
-1.1358119e-01 5.1334202e-02 -1.8852010e-02 
-1.1097868e-01 5.1443132e-02 3.2456002e-02 
-1.1031304e-01 5.0601067e-02 2.7757663e-02 
-1.0974081e-01 5.0577901e-02 2.3156398e-02 
-1.1631777e-01 7.0661182e-02 -3.3106081e-02 
-1.0926311e-01 5.0486289e-02 1.8513756e-02 
-1.0888092e-01 5.0422519e-02 1.3870894e-02 
-1.1396986e-01 5.1424564e-02 -2.3519214e-02 
-1.1613198e-01 6.6105720e-02 -3.3182199e-02 
-1.0726248e-01 9.5679020e-02 3.2155857e-02 
-1.0859508e-01 5.0376189e-02 9.2207032e-03 
-1.0764299e-01 9.1171239e-02 3.2129037e-02 
-1.0791901e-01 8.6670825e-02 3.2130910e-02 
-1.0809079e-01 8.2175446e-02 3.2146229e-02 
-1.0840637e-01 5.0348458e-02 4.5688785e-03 
-1.1585654e-01 6.1531898e-02 -3.3263062e-02 
-1.0815862e-01 7.7682627e-02 3.2176717e-02 
-1.1445539e-01 5.1445348e-02 -2.8138733e-02 
-1.0831545e-01 5.0339218e-02 -8.2405163e-05 
-1.0812283e-01 7.3190028e-02 3.2222249e-02 
-1.1549164e-01 5.6968352e-02 -3.3443204e-02 
-1.0798384e-01 6.8694458e-02 3.2282754e-02 
-1.0832290e-01 5.0348489e-02 -4.7301761e-03 
-1.1503755e-01 5.2292415e-02 -3.2850644e-02 
-1.0774211e-01 6.4195454e-02 3.2359324e-02 
-1.0842920e-01 5.0376252e-02 -9.3715074e-03 
-1.0739822e-01 5.9681840e-02 3.2441901e-02 
-1.1101394e-01 9.6549783e-02 -3.2563634e-02 
-1.1137612e-01 9.2048351e-02 -3.2541814e-02 
-1.1164533e-01 8.7554586e-02 -3.2546005e-02 
-1.0863474e-01 5.0422613e-02 -1.4004358e-02 
-1.1182160e-01 8.3065425e-02 -3.2563323e-02 
-1.0695287e-01 5.5181832e-02 3.2623087e-02 
-1.1190492e-01 7.8577687e-02 -3.2595233e-02 
-1.1189525e-01 7.4088372e-02 -3.2641638e-02 
-1.0893980e-01 5.0486414e-02 -1.8623255e-02 
-1.0640690e-01 5.0575995e-02 3.2048685e-02 
-1.0572467e-01 4.9738649e-02 2.7410922e-02 
-1.0513924e-01 4.9713032e-02 2.2869074e-02 
-1.1179258e-01 6.9593665e-02 -3.2702461e-02 
-1.0465158e-01 4.9620090e-02 1.8285784e-02 
-1.0426255e-01 4.9555212e-02 1.3701942e-02 
-1.0934451e-01 5.0578059e-02 -2.3235616e-02 
-1.1159690e-01 6.5092576e-02 -3.2778806e-02 
-1.0397290e-01 4.9508098e-02 9.1105234e-03 
-1.0278106e-01 9.4169642e-02 3.1734671e-02 
-1.0317020e-01 8.9723855e-02 3.1702840e-02 
-1.0345250e-01 8.5285567e-02 3.1702400e-02 
-1.1130826e-01 6.0573330e-02 -3.2860509e-02 
-1.0378330e-01 4.9479894e-02 4.5172007e-03 
-1.0362815e-01 8.0852433e-02 3.1715729e-02 
-1.0369737e-01 7.6421961e-02 3.1744807e-02 
-1.0984886e-01 5.0601215e-02 -2.7800662e-02 
-1.0369435e-01 4.9470496e-02 -7.5852128e-05 
-1.0366043e-01 7.1991786e-02 3.1789486e-02 
-1.1092676e-01 5.6064132e-02 -3.3041174e-02 
-1.0351762e-01 6.7558688e-02 3.1849697e-02 
-1.0370656e-01 4.9479923e-02 -4.6656710e-03 
-1.1045265e-01 5.1443669e-02 -3.2457363e-02 
-1.0326928e-01 6.3122130e-02 3.1926520e-02 
-1.0382040e-01 4.9508156e-02 -9.2493330e-03 
-1.0291586e-01 5.8670986e-02 3.2010003e-02 
-1.0653511e-01 9.5121929e-02 -3.2157014e-02 
-1.0690657e-01 9.0675830e-02 -3.2130337e-02 
-1.0718199e-01 8.6237498e-02 -3.2132283e-02 
-1.0403624e-01 4.9555299e-02 -1.3824788e-02 
-1.0736136e-01 8.1803906e-02 -3.2147669e-02 
-1.0245790e-01 5.4232988e-02 3.2191764e-02 
-1.0744464e-01 7.7371901e-02 -3.2178210e-02 
-1.0743177e-01 7.2938499e-02 -3.2223784e-02 
-1.0435435e-01 4.9620204e-02 -1.8386565e-02 
-1.0189609e-01 4.9690112e-02 3.1626656e-02 
-1.0119697e-01 4.8857627e-02 2.7051303e-02 
-1.0059807e-01 4.8829476e-02 2.2570762e-02 
-1.0732266e-01 6.8499901e-02 -3.2284316e-02 
-1.0010021e-01 4.8735157e-02 1.8048797e-02 
-9.9704110e-02 4.8669135e-02 1.3526018e-02 
-1.0477492e-01 4.9713177e-02 -2.2941978e-02 
-1.0711725e-01 6.4055079e-02 -3.2360901e-02 
-9.9410410e-02 4.8621208e-02 8.9954750e-03 
-9.8362239e-02 9.2626268e-02 3.1298240e-02 
-9.8760143e-02 8.8243821e-02 3.1261228e-02 
-1.0681550e-01 5.9592338e-02 -3.2443476e-02 
-9.9048841e-02 8.3869003e-02 3.1258397e-02 
-9.9219676e-02 4.8592516e-02 4.4628059e-03 
-9.9228485e-02 7.9499470e-02 3.1269670e-02 
-1.0529795e-01 4.9738785e-02 -2.7450481e-02 
-9.9299220e-02 7.5132724e-02 3.1297295e-02 
-9.9132428e-02 4.8582954e-02 -6.9828149e-05 
-1.0641748e-01 5.5139446e-02 -3.2624688e-02 
-9.9261204e-02 7.0766389e-02 3.1341095e-02 
-9.9149139e-02 4.8592543e-02 -4.5994845e-03 
-9.9114614e-02 6.6397230e-02 3.1401005e-02 
-1.0592331e-01 5.0576490e-02 -3.2049910e-02 
-9.8859671e-02 6.2024649e-02 3.1478094e-02 
-9.9270235e-02 4.8621262e-02 -9.1232583e-03 
-9.8496658e-02 5.7637580e-02 3.1562518e-02 
-1.0211247e-01 9.3656689e-02 -3.1735709e-02 
-1.0249329e-01 8.9267697e-02 -3.1704010e-02 
-1.0277503e-01 8.4886572e-02 -3.1703637e-02 
-9.9496089e-02 4.8669215e-02 -1.3639103e-02 
-1.0295766e-01 8.0510330e-02 -3.1717027e-02 
-9.8025954e-02 5.3263271e-02 3.1744883e-02 
-1.0304110e-01 7.6135854e-02 -3.1746155e-02 
-1.0302522e-01 7.1760186e-02 -3.1790872e-02 
-9.9827003e-02 4.8735263e-02 -1.8141566e-02 
-9.7448060e-02 4.8785163e-02 3.1189370e-02 
-9.6731832e-02 4.7957681e-02 2.6678320e-02 
-1.0290987e-01 6.7379546e-02 -3.1851108e-02 
-9.6119277e-02 4.7926913e-02 2.2261047e-02 
-9.5611052e-02 4.7831170e-02 1.7802462e-02 
-1.0026319e-01 4.8829610e-02 -2.2637862e-02 
-1.0269491e-01 6.2992878e-02 -3.1927945e-02 
-9.5207722e-02 4.7763963e-02 1.3342877e-02 
-9.4909790e-02 4.7715197e-02 8.8754056e-03 
-9.4007374e-02 9.1048466e-02 3.0845995e-02 
-1.0238023e-01 5.8588576e-02 -3.2011425e-02 
-9.4414159e-02 8.6730705e-02 3.0803628e-02 
-9.4709394e-02 8.2420697e-02 3.0798326e-02 
-9.4717717e-02 4.7685999e-02 4.4056388e-03 
-1.0080474e-01 4.8857752e-02 -2.7087699e-02 
-9.4893169e-02 7.8116114e-02 3.0807476e-02 
-9.4965550e-02 7.3814472e-02 3.0833602e-02 
-1.0196577e-01 5.4193961e-02 -3.2193211e-02 
-9.4631944e-02 4.7676268e-02 -6.4291204e-05 
-9.4926589e-02 6.9513392e-02 3.0876498e-02 
-9.4652891e-02 4.7686024e-02 -4.5314790e-03 
-1.0145159e-01 4.9690568e-02 -3.1627757e-02 
-9.4776336e-02 6.5209646e-02 3.0936102e-02 
-9.4514863e-02 6.0902582e-02 3.1013471e-02 
-9.4780963e-02 4.7715246e-02 -8.9930542e-03 
-9.4142282e-02 5.6581215e-02 3.1098874e-02 
-9.7747776e-02 9.2153885e-02 -3.1299168e-02 
-9.8138026e-02 8.7823742e-02 -3.1262278e-02 
-9.8426216e-02 8.3501565e-02 -3.1259508e-02 
-9.5016542e-02 4.7764036e-02 -1.3446989e-02 
-9.8612277e-02 7.9184424e-02 -3.1270838e-02 
-9.8696072e-02 7.4869246e-02 -3.1298509e-02 
-9.3658780e-02 5.2272306e-02 3.1281871e-02 
-9.8677411e-02 7.0553106e-02 -3.1342343e-02 
-9.5359966e-02 4.7831267e-02 -1.7887866e-02 
-9.3064653e-02 4.7860819e-02 3.0736259e-02 
-9.8556067e-02 6.6232257e-02 -3.1402277e-02 
-9.2331203e-02 4.7038484e-02 2.6291465e-02 
-9.1704915e-02 4.7005011e-02 2.1939492e-02 
-9.1186249e-02 4.6907795e-02 1.7546425e-02 
-9.5811509e-02 4.7927036e-02 -2.2322812e-02 
-9.8331802e-02 6.1905619e-02 -3.1479379e-02 
-9.0775597e-02 4.6839363e-02 1.3152255e-02 
-9.0473315e-02 4.6789728e-02 8.7501501e-03 
-9.8004393e-02 5.7561687e-02 -3.1563801e-02 
-8.9717809e-02 8.9435872e-02 3.0377346e-02 
-9.0133585e-02 8.5184127e-02 3.0329444e-02 
-9.0279745e-02 4.6760007e-02 4.3456356e-03 
-9.0435491e-02 8.0940257e-02 3.0321593e-02 
-9.6371352e-02 4.7957796e-02 -2.6711810e-02 
-9.0623554e-02 7.6701962e-02 3.0328551e-02 
-9.7573667e-02 5.3227331e-02 -3.1746188e-02 
-9.0195243e-02 4.6750101e-02 -5.9202655e-05 
-9.0697753e-02 7.2466788e-02 3.0353132e-02 
-9.0658026e-02 6.8232373e-02 3.0395097e-02 
-9.0220178e-02 4.6760030e-02 -4.4615152e-03 
-9.7039541e-02 4.8785583e-02 -3.1190356e-02 
-9.0504287e-02 6.3995507e-02 3.0454390e-02 
-9.0354940e-02 4.6789773e-02 -8.8584847e-03 
-9.0236440e-02 5.9755506e-02 3.0532055e-02 
-9.3442758e-02 9.0613367e-02 -3.0846823e-02 
-8.9854409e-02 5.5501483e-02 3.0618475e-02 
-9.3842510e-02 8.6343781e-02 -3.0804567e-02 
-9.4137277e-02 8.2082260e-02 -3.0799322e-02 
-9.0599928e-02 4.6839430e-02 -1.3248122e-02 
-9.4326950e-02 7.7825934e-02 -3.0808524e-02 
-9.4411332e-02 7.3571789e-02 -3.0834692e-02 
-8.9358166e-02 5.1259712e-02 3.0802135e-02 
-9.4390156e-02 6.9316943e-02 -3.0877620e-02 
-9.0955533e-02 4.6907883e-02 -1.7625060e-02 
-9.4263103e-02 6.5057692e-02 -3.0937246e-02 
-8.8747771e-02 4.6916739e-02 3.0266738e-02 
-8.7997104e-02 4.6099694e-02 2.5890208e-02 
-8.7357109e-02 4.6063427e-02 2.1605638e-02 
-8.6828025e-02 4.5964686e-02 1.7280311e-02 
-9.1422116e-02 4.7005124e-02 -2.1996354e-02 
-9.4029820e-02 6.0792946e-02 -3.1014628e-02 
-8.6410046e-02 4.5894987e-02 1.2953872e-02 
-8.6103362e-02 4.5844454e-02 8.6195303e-03 
-9.3689954e-02 5.6511312e-02 -3.1100028e-02 
-8.5494873e-02 8.7788186e-02 2.9891681e-02 
-9.1999969e-02 4.7038589e-02 -2.6322284e-02 
-8.5919737e-02 8.3603768e-02 2.9838064e-02 
-8.5908185e-02 4.5814193e-02 4.2827240e-03 
-8.6228452e-02 7.9427340e-02 2.9827579e-02 
-9.3243188e-02 5.2239203e-02 -3.1283045e-02 
-8.6420979e-02 7.5256651e-02 2.9832278e-02 
-8.5824779e-02 4.5804106e-02 -5.4526975e-05 
-8.6497204e-02 7.1089289e-02 2.9855266e-02 
-8.6456946e-02 6.6922931e-02 2.9896274e-02 
-9.2689278e-02 4.7861207e-02 -3.0737140e-02 
-8.5853463e-02 4.5814213e-02 -4.3894512e-03 
-8.6299968e-02 6.2754404e-02 2.9955253e-02 
-8.5994614e-02 4.5844495e-02 -8.7193066e-03 
-8.6025995e-02 5.8583008e-02 3.0033229e-02 
-8.9199111e-02 8.9035032e-02 -3.0378081e-02 
-8.9608425e-02 8.4827669e-02 -3.0330282e-02 
-8.5634739e-02 5.4397976e-02 3.0120707e-02 
-8.6248664e-02 4.5895049e-02 -1.3042163e-02 
-8.9909901e-02 8.0628467e-02 -3.0322483e-02 
-9.0103383e-02 7.6434630e-02 -3.0329489e-02 
-9.0188607e-02 7.2243212e-02 -3.0354109e-02 
-8.5125929e-02 5.0225100e-02 3.0305063e-02 
-9.0165221e-02 6.8051390e-02 -3.0396103e-02 
-8.6616074e-02 4.5964768e-02 -1.7352727e-02 
-9.0032795e-02 6.3855518e-02 -3.0455417e-02 
-8.4499362e-02 4.5952571e-02 2.9780198e-02 
-8.3731614e-02 4.5140960e-02 2.5473998e-02 
-8.3078065e-02 4.5101807e-02 2.1259006e-02 
-8.7097311e-02 4.6063531e-02 -2.1657996e-02 
-8.2538697e-02 4.5001489e-02 1.7003726e-02 
-8.9790847e-02 5.9654503e-02 -3.0533093e-02 
-8.2113479e-02 4.4930479e-02 1.2747432e-02 
-8.9438871e-02 5.5437084e-02 -3.0619511e-02 
-8.1802414e-02 4.4879016e-02 8.4833540e-03 
-8.7692810e-02 4.6099791e-02 -2.5918573e-02 
-8.1605573e-02 4.4848196e-02 4.2168234e-03 
-8.1339871e-02 8.6105182e-02 2.9388368e-02 
-8.1773907e-02 8.1989371e-02 2.9328849e-02 
-8.2089571e-02 7.7881661e-02 2.9315649e-02 
-8.8976376e-02 5.1229215e-02 -3.0803190e-02 
-8.2286758e-02 7.3779863e-02 2.9318017e-02 
-8.1523117e-02 4.4837922e-02 -5.0231497e-05 
-8.2365256e-02 6.9681630e-02 2.9339366e-02 
-8.8402926e-02 4.6917096e-02 -3.0267521e-02 
-8.2324759e-02 6.5584694e-02 2.9379391e-02 
-8.1555313e-02 4.4848215e-02 -4.3151424e-03 
-8.2164869e-02 6.1485943e-02 2.9438050e-02 
-8.1702537e-02 4.4879054e-02 -8.5752680e-03 
-8.1885115e-02 5.7384680e-02 2.9516356e-02 
-8.5018482e-02 8.7418818e-02 -2.9892331e-02 
-8.5437410e-02 8.3275296e-02 -2.9838808e-02 
-8.5745731e-02 7.9140030e-02 -2.9828372e-02 
-8.1965260e-02 4.4930535e-02 -1.2828762e-02 
-8.1484975e-02 5.3270285e-02 2.9604933e-02 
-8.5943235e-02 7.5010307e-02 -2.9833114e-02 
-8.6029587e-02 7.0883266e-02 -2.9856138e-02 
-8.0963911e-02 4.9168074e-02 2.9790021e-02 
-8.6004338e-02 6.6756157e-02 -2.9897174e-02 
-8.2344034e-02 4.5001563e-02 -1.7070428e-02 
-8.5866936e-02 6.2625405e-02 -2.9956171e-02 
-8.0321416e-02 4.4967951e-02 2.9276012e-02 
-7.9536880e-02 4.4161918e-02 2.5042257e-02 
-7.8870070e-02 4.4119784e-02 2.0899090e-02 
-8.2839459e-02 4.5101902e-02 -2.1307225e-02 
-8.5616750e-02 5.8489934e-02 -3.0034158e-02 
-7.8320674e-02 4.4017834e-02 1.6716251e-02 
-7.7888409e-02 4.3945468e-02 1.2532615e-02 
-8.5253098e-02 5.4338632e-02 -3.0121634e-02 
-7.7573067e-02 4.3893044e-02 8.3414151e-03 
-8.3452142e-02 4.5141048e-02 -2.5500108e-02 
-7.7374558e-02 4.3861646e-02 4.1478446e-03 
-7.7254072e-02 8.4386708e-02 2.8866749e-02 
-8.4775284e-02 5.0196997e-02 -3.0306008e-02 
-7.7697349e-02 8.0340747e-02 2.8801142e-02 
-7.8020107e-02 7.6302990e-02 2.8785141e-02 
-7.8222169e-02 7.2271330e-02 2.8785109e-02 
-7.7292936e-02 4.3851179e-02 -4.6286175e-05 
-7.8303229e-02 6.8243503e-02 2.8804769e-02 
-8.4182647e-02 4.5952900e-02 -2.9780892e-02 
-7.8262847e-02 6.4217318e-02 2.8843787e-02 
-7.7328413e-02 4.3861663e-02 -4.2384407e-03 
-7.8100456e-02 6.0189749e-02 2.8902122e-02 
-7.7481365e-02 4.3893079e-02 -8.4261078e-03 
-7.7815375e-02 5.6160126e-02 2.8980775e-02 
-8.0902469e-02 8.5764719e-02 -2.9388939e-02 
-8.1331055e-02 8.1686604e-02 -2.9329508e-02 
-8.1646357e-02 7.7616833e-02 -2.9316351e-02 
-7.7752321e-02 4.3945520e-02 -1.2607553e-02 
-7.7406826e-02 5.2118003e-02 2.9070496e-02 
-8.1848114e-02 7.3552795e-02 -2.9318761e-02 
-8.1935912e-02 6.9491727e-02 -2.9340142e-02 
-7.6873972e-02 4.8088232e-02 2.9256351e-02 
-8.1909197e-02 6.5430969e-02 -2.9380193e-02 
-7.8141944e-02 4.4017902e-02 -1.6777705e-02 
-8.1767282e-02 6.1367036e-02 -2.9438869e-02 
-7.6215966e-02 4.3962503e-02 2.8753528e-02 
-7.5415107e-02 4.3162190e-02 2.4594386e-02 
-7.4735488e-02 4.3116979e-02 2.0525358e-02 
-7.8650994e-02 4.4119871e-02 -2.0943507e-02 
-8.1509369e-02 5.7298888e-02 -2.9517184e-02 
-7.4176463e-02 4.3013340e-02 1.6417445e-02 
-7.3737459e-02 4.2939572e-02 1.2309087e-02 
-8.1134574e-02 5.3215584e-02 -2.9605760e-02 
-7.3418034e-02 4.2886154e-02 8.1934927e-03 
-7.9280284e-02 4.4161998e-02 -2.5066296e-02 
-7.3217915e-02 4.2854157e-02 4.0756892e-03 
-8.0641969e-02 4.9142169e-02 -2.9790864e-02 
-7.3238705e-02 8.2632689e-02 2.8326146e-02 
-7.3691279e-02 7.8657772e-02 2.8254261e-02 
-7.4021274e-02 7.4691157e-02 2.8235375e-02 
-7.3137039e-02 4.2843490e-02 -4.2663373e-05 
-7.4228448e-02 7.0730834e-02 2.8232870e-02 
-8.0030627e-02 4.4968253e-02 -2.9276624e-02 
-7.4312398e-02 6.6774642e-02 2.8250795e-02 
-7.3175562e-02 4.2854172e-02 -4.1591939e-03 
-7.4272551e-02 6.2820494e-02 2.8288778e-02 
-7.4108163e-02 5.8865471e-02 2.8346787e-02 
-7.3333867e-02 4.2886185e-02 -8.2715543e-03 
-7.3818328e-02 5.4908961e-02 2.8425805e-02 
-7.6852615e-02 8.4072785e-02 -2.8867248e-02 
-7.7290888e-02 8.0061581e-02 -2.8801721e-02 
-7.7613313e-02 7.6058805e-02 -2.8785761e-02 
-7.3612555e-02 4.2939618e-02 -1.2378154e-02 
-7.7819571e-02 7.2061961e-02 -2.8785766e-02 
-7.3401990e-02 5.0940725e-02 2.8516714e-02 
-7.7909168e-02 6.8068401e-02 -2.8805457e-02 
-7.7881437e-02 6.4075574e-02 -2.8844498e-02 
-7.4012421e-02 4.3013401e-02 -1.6474080e-02 
-7.2857982e-02 4.6985168e-02 2.8703377e-02 
-7.7735546e-02 6.0080109e-02 -2.8902850e-02 
-7.2185074e-02 4.2935838e-02 2.8212073e-02 
-7.1368560e-02 4.2141389e-02 2.4129755e-02 
-7.4534416e-02 4.3117058e-02 -2.0566286e-02 
-7.7470512e-02 5.6081020e-02 -2.8981511e-02 
-7.0676766e-02 4.2092999e-02 2.0137255e-02 
-7.0108668e-02 4.1987612e-02 1.6106844e-02 
-6.9663366e-02 4.1912394e-02 1.2076490e-02 
-7.7085226e-02 5.2067565e-02 -2.9071231e-02 
-6.9340148e-02 4.1857947e-02 8.0393503e-03 
-7.5179600e-02 4.3162263e-02 -2.4616523e-02 
-7.6578491e-02 4.8064347e-02 -2.9257102e-02 
-6.9138545e-02 4.1825331e-02 4.0002501e-03 
-6.9294945e-02 8.0843123e-02 2.7765856e-02 
-6.9756857e-02 7.6940390e-02 2.7687502e-02 
-7.0094236e-02 7.3046050e-02 2.7665645e-02 
-6.9058359e-02 4.1814458e-02 -3.9337662e-05 
-7.0306779e-02 6.9158207e-02 2.7660596e-02 
-7.5949077e-02 4.3962781e-02 -2.8754065e-02 
-7.0393990e-02 6.5274825e-02 2.7676736e-02 
-6.9099688e-02 4.1825345e-02 -4.0772448e-03 
-7.0355166e-02 6.1393942e-02 2.7713660e-02 
-7.0189382e-02 5.7512779e-02 2.7771338e-02 
-6.9262931e-02 4.1857975e-02 -8.1113247e-03 
-6.9895494e-02 5.3630812e-02 2.7850742e-02 
-7.2870395e-02 8.2343127e-02 -2.8326579e-02 
-7.3318377e-02 7.8400269e-02 -2.8254767e-02 
-7.3648067e-02 7.4465919e-02 -2.8235919e-02 
-6.9548775e-02 4.1912435e-02 -1.2140169e-02 
-7.3859092e-02 7.0537709e-02 -2.8233449e-02 
-6.9472149e-02 4.9738049e-02 2.7942886e-02 
-7.3950876e-02 6.6613126e-02 -2.8251401e-02 
-7.3922637e-02 6.2689746e-02 -2.8289407e-02 
-6.9958172e-02 4.1987667e-02 -1.6159056e-02 
-6.8917818e-02 4.5858465e-02 2.8130395e-02 
-7.3773388e-02 5.8764336e-02 -2.8347430e-02 
-6.8230839e-02 4.1887557e-02 2.7650950e-02 
-7.0492299e-02 4.2093070e-02 -2.0174979e-02 
-6.7399562e-02 4.1099110e-02 2.3647711e-02 
-7.3501946e-02 5.4835991e-02 -2.8426457e-02 
-6.6696435e-02 4.1047439e-02 1.9734196e-02 
-6.6119998e-02 4.0940243e-02 1.5783955e-02 
-6.5668982e-02 4.0863524e-02 1.1834445e-02 
-7.3106951e-02 5.0894200e-02 -2.8517365e-02 
-6.5342376e-02 4.0808013e-02 7.8787358e-03 
-7.1152501e-02 4.2141454e-02 -2.4150147e-02 
-7.2586906e-02 4.6963134e-02 -2.8704042e-02 
-6.5139484e-02 4.0774758e-02 3.9214107e-03 
-6.5423910e-02 7.9018078e-02 2.7185152e-02 
-6.5895188e-02 7.5188609e-02 2.7100139e-02 
-6.5059964e-02 4.0763670e-02 -3.6285635e-05 
-6.6240097e-02 7.1367616e-02 2.7075226e-02 
-7.1940227e-02 4.2936094e-02 -2.8212540e-02 
-6.6458284e-02 6.7553334e-02 2.7067559e-02 
-6.6549171e-02 6.3743871e-02 2.7081866e-02 
-6.5103853e-02 4.0774770e-02 -3.9924313e-03 
-6.6511927e-02 5.9937418e-02 2.7117703e-02 
-6.5271569e-02 4.0808038e-02 -7.9451239e-03 
-6.6345450e-02 5.6131368e-02 2.7175048e-02 
-6.6048351e-02 5.2325321e-02 2.7254856e-02 
-6.8957216e-02 8.0575914e-02 -2.7766227e-02 
-6.9414916e-02 7.6702764e-02 -2.7687941e-02 
-6.9752015e-02 7.2838197e-02 -2.7666119e-02 
-6.5563905e-02 4.0863561e-02 -1.1893179e-02 
-6.9968090e-02 6.8979988e-02 -2.7661102e-02 
-6.5618960e-02 4.8509575e-02 2.7348282e-02 
-7.0062487e-02 6.5125773e-02 -2.7677268e-02 
-7.0034309e-02 6.1273283e-02 -2.7714212e-02 
-6.5981998e-02 4.0940292e-02 -1.5832108e-02 
-6.5055348e-02 4.4707705e-02 2.7536680e-02 
-6.9882409e-02 5.7419447e-02 -2.7771904e-02 
-6.6527285e-02 4.1047502e-02 -1.9768979e-02 
-6.4355380e-02 4.0817245e-02 2.7069435e-02 
-6.9605389e-02 5.3563472e-02 -2.7851315e-02 
-6.3510493e-02 4.0034936e-02 2.3147571e-02 
-6.2797104e-02 3.9979877e-02 1.9315567e-02 
-6.2213264e-02 3.9870809e-02 1.5448261e-02 
-6.9201616e-02 4.9695112e-02 -2.7943459e-02 
-6.1757283e-02 3.9792538e-02 1.1582551e-02 
-6.7201447e-02 4.1099167e-02 -2.3666501e-02 
-6.1427815e-02 3.9735927e-02 7.7113798e-03 
-6.8669256e-02 4.5838131e-02 -2.8130982e-02 
-6.1223910e-02 3.9702010e-02 3.8390447e-03 
-6.1626654e-02 7.7157683e-02 2.6583285e-02 
-6.2107314e-02 7.3402491e-02 2.6491423e-02 
-6.1145068e-02 3.9690702e-02 -3.3485734e-05 
-6.8006328e-02 4.1887792e-02 -2.7651353e-02 
-6.2459900e-02 6.9655853e-02 2.6463367e-02 
-6.2684022e-02 6.5916146e-02 2.6453010e-02 
-6.2779036e-02 6.2181643e-02 2.6465434e-02 
-6.1191257e-02 3.9702021e-02 -3.9045847e-03 
-6.2744001e-02 5.8450712e-02 2.6500156e-02 
-6.1362925e-02 3.9735949e-02 -7.7726432e-03 
-6.2577643e-02 5.4720957e-02 2.6557164e-02 
-6.5114408e-02 7.8771370e-02 -2.7185467e-02 
-6.2278324e-02 5.0992143e-02 2.6637397e-02 
-6.5581823e-02 7.4969213e-02 -2.7100517e-02 
-6.5926477e-02 7.1175708e-02 -2.7075635e-02 
-6.1660988e-02 3.9792571e-02 -1.1636747e-02 
-6.6147902e-02 6.7388784e-02 -2.7067999e-02 
-6.1844039e-02 4.7254906e-02 2.6732151e-02 
-6.6245375e-02 6.3606250e-02 -2.7082329e-02 
-6.6217892e-02 5.9826011e-02 -2.7118184e-02 
-6.2086797e-02 3.9870852e-02 -1.5492690e-02 
-6.1272431e-02 4.3532460e-02 2.6921480e-02 
-6.6064141e-02 5.6045192e-02 -2.7175542e-02 
-6.2642094e-02 3.9979933e-02 -1.9347653e-02 
-6.5782502e-02 5.2263143e-02 -2.7255358e-02 
-6.0560838e-02 3.9724473e-02 2.6466779e-02 
-5.9703787e-02 3.8948436e-02 2.2628620e-02 
-5.8981471e-02 3.8889879e-02 1.8880723e-02 
-5.8391387e-02 3.8778873e-02 1.5099215e-02 
-6.5371047e-02 4.8469929e-02 -2.7348784e-02 
-5.7931375e-02 3.8698998e-02 1.1320381e-02 
-6.3328940e-02 4.0034986e-02 -2.3164891e-02 
-5.7599707e-02 3.8641249e-02 7.5369955e-03 
-6.4827570e-02 4.4688929e-02 -2.7537195e-02 
-5.7395154e-02 3.8606648e-02 3.7530161e-03 
-6.4149640e-02 4.0817460e-02 -2.7069779e-02 
-5.7317036e-02 3.8595111e-02 -3.0918089e-05 
-5.7904160e-02 7.5262111e-02 2.5959483e-02 
-5.8394211e-02 7.1582142e-02 2.5860584e-02 
-5.8754619e-02 6.7910801e-02 2.5829298e-02 
-5.8984981e-02 6.4246615e-02 2.5816177e-02 
-5.7365250e-02 3.8606658e-02 -3.8135300e-03 
-5.9084611e-02 6.0588037e-02 2.5826666e-02 
-5.9052482e-02 5.6933645e-02 2.5860246e-02 
-5.7540282e-02 3.8641268e-02 -7.5935595e-03 
-5.8887163e-02 5.3281288e-02 2.5916911e-02 
-6.1343220e-02 7.6929770e-02 -2.6583548e-02 
-6.1820340e-02 7.3199807e-02 -2.6491744e-02 
-5.8586772e-02 4.9630944e-02 2.5997586e-02 
-6.2172691e-02 6.9478562e-02 -2.6463717e-02 
-5.7843189e-02 3.8699026e-02 -1.1370417e-02 
-6.2399780e-02 6.5764127e-02 -2.6453388e-02 
-6.2500830e-02 6.2054500e-02 -2.6465833e-02 
-5.8148958e-02 4.5973648e-02 2.6093715e-02 
-6.2474737e-02 5.8347787e-02 -2.6500573e-02 
-5.8275572e-02 3.8778911e-02 -1.5140229e-02 
-5.7570904e-02 4.2332297e-02 2.6284019e-02 
-6.2320036e-02 5.4641341e-02 -2.6557593e-02 
-5.8839517e-02 3.8889928e-02 -1.8910335e-02 
-6.2034877e-02 5.0934696e-02 -2.6637833e-02 
-5.6849367e-02 3.8608799e-02 2.5842206e-02 
-5.5981928e-02 3.7839160e-02 2.2090113e-02 
-5.5252316e-02 3.7776994e-02 1.8428986e-02 
-5.4657401e-02 3.7663983e-02 1.4736239e-02 
-6.1617019e-02 4.7218276e-02 -2.6732587e-02 
-5.4194496e-02 3.7582448e-02 1.1047485e-02 
-5.9537528e-02 3.8948479e-02 -2.2644592e-02 
-5.3861444e-02 3.7523525e-02 7.3552777e-03 
-6.1063849e-02 4.3515112e-02 -2.6921929e-02 
-5.3656703e-02 3.7488217e-02 3.6631781e-03 
-6.0372434e-02 3.9724670e-02 -2.6467069e-02 
-5.3579394e-02 3.7476444e-02 -2.8564369e-05 
-5.4257346e-02 7.3331555e-02 2.5312952e-02 
-5.4756792e-02 6.9727692e-02 2.5206829e-02 
-5.5125163e-02 6.6132527e-02 2.5172225e-02 
-5.5362075e-02 6.2544740e-02 2.5156264e-02 
-5.3629339e-02 3.7488225e-02 -3.7190849e-03 
-5.5466841e-02 5.8962980e-02 2.5164766e-02 
-5.5438379e-02 5.5386061e-02 2.5197174e-02 
-5.3807066e-02 3.7523540e-02 -7.4075338e-03 
-5.5275129e-02 5.1812121e-02 2.5253489e-02 
-5.7644815e-02 7.5051419e-02 -2.5959697e-02 
-5.8131623e-02 7.1394772e-02 -2.5860852e-02 
-5.8491815e-02 6.7746902e-02 -2.5829593e-02 
-5.4113801e-02 3.7582472e-02 -1.1093708e-02 
-5.4974981e-02 4.8241403e-02 2.5334624e-02 
-5.8724894e-02 6.4106077e-02 -2.5816497e-02 
-5.8830051e-02 6.0470494e-02 -2.5827007e-02 
-5.4535230e-02 4.4665408e-02 2.5432172e-02 
-5.8806108e-02 5.6838488e-02 -2.5860603e-02 
-5.4551427e-02 3.7664015e-02 -1.4774123e-02 
-5.8651459e-02 5.3207680e-02 -2.5917279e-02 
-5.3952571e-02 4.1106772e-02 2.5623490e-02 
-5.5122427e-02 3.7777036e-02 -1.8456332e-02 
-5.8364028e-02 4.9577832e-02 -2.5997962e-02 
-5.3223129e-02 3.7469764e-02 2.5194906e-02 
-5.2347453e-02 3.6706644e-02 2.1531268e-02 
-5.1612505e-02 3.6640754e-02 1.7959645e-02 
-5.7941246e-02 4.5939781e-02 -2.6094091e-02 
-5.1014456e-02 3.6525669e-02 1.4358725e-02 
-5.0550023e-02 3.6442421e-02 1.0763384e-02 
-5.5829804e-02 3.7839196e-02 -2.2104849e-02 
-5.0216574e-02 3.6382283e-02 7.1659019e-03 
-5.7380061e-02 4.2316255e-02 -2.6284407e-02 
-5.0012212e-02 3.6346246e-02 3.5693737e-03 
-5.6676983e-02 3.8608979e-02 -2.5842446e-02 
-4.9935840e-02 3.6334229e-02 -2.6407636e-05 
-5.0687061e-02 7.1366195e-02 2.4642883e-02 
-5.1195909e-02 6.7839265e-02 2.4529347e-02 
-5.1572381e-02 6.4321104e-02 2.4491334e-02 
-5.1816156e-02 6.0810535e-02 2.4472455e-02 
-4.9987196e-02 3.6346252e-02 -3.6210589e-03 
-5.1926596e-02 5.7306416e-02 2.4478915e-02 
-5.1902618e-02 5.3807823e-02 2.4510118e-02 
-5.0166863e-02 3.6382296e-02 -7.2142108e-03 
-5.1742576e-02 5.0313230e-02 2.4566075e-02 
-5.4020275e-02 7.3136634e-02 -2.5313122e-02 
-5.4516752e-02 6.9554345e-02 -2.5207049e-02 
-5.4884927e-02 6.5980893e-02 -2.5172469e-02 
-5.0476256e-02 3.6442440e-02 -1.0806114e-02 
-5.1444154e-02 4.6823205e-02 2.4647683e-02 
-5.5124325e-02 6.2414715e-02 -2.5156532e-02 
-5.5234147e-02 5.8854227e-02 -2.5165053e-02 
-5.1004302e-02 4.3329791e-02 2.4746691e-02 
-5.5213173e-02 5.5298018e-02 -2.5197476e-02 
-5.0917581e-02 3.6525695e-02 -1.4393741e-02 
-5.5059683e-02 5.1744014e-02 -2.5253802e-02 
-5.0419201e-02 3.9855433e-02 2.4939062e-02 
-5.1493771e-02 3.6640788e-02 -1.7984914e-02 
-5.4771384e-02 4.8192259e-02 -2.5334944e-02 
-4.9684289e-02 3.6306891e-02 2.4524039e-02 
-4.8802943e-02 3.5550401e-02 2.0951270e-02 
-4.8064993e-02 3.5480673e-02 1.7471951e-02 
-5.4345375e-02 4.4634070e-02 -2.5432493e-02 
-4.7465822e-02 3.5363445e-02 1.3966030e-02 
-5.2208398e-02 3.6706671e-02 -2.1544873e-02 
-4.7001483e-02 3.5278428e-02 1.0467576e-02 
-5.3778135e-02 4.1091927e-02 -2.5623822e-02 
-4.6668810e-02 3.5217038e-02 6.9685244e-03 
-4.6465513e-02 3.5180249e-02 3.4714351e-03 
-5.3065561e-02 3.7469926e-02 -2.5195100e-02 
-4.6390251e-02 3.5167981e-02 -2.4432217e-05 
-4.7194102e-02 6.9366152e-02 2.3948449e-02 
-4.7712374e-02 6.5916943e-02 2.3827308e-02 
-4.8097076e-02 6.2476575e-02 2.3785791e-02 
-4.6442670e-02 3.5180254e-02 -3.5192536e-03 
-4.8348014e-02 5.9044001e-02 2.3763911e-02 
-4.8464672e-02 5.5618286e-02 2.3768271e-02 
-4.8446038e-02 5.2198797e-02 2.3798236e-02 
-4.6623417e-02 3.5217048e-02 -7.0132181e-03 
-4.8290442e-02 4.8784391e-02 2.3853822e-02 
-5.0470605e-02 7.1185710e-02 -2.4643012e-02 
-5.0976737e-02 6.7678754e-02 -2.4529522e-02 
-5.1353028e-02 6.4180693e-02 -2.4491532e-02 
-4.6934125e-02 3.5278442e-02 -1.0507105e-02 
-4.7995406e-02 4.5376032e-02 2.3935913e-02 
-5.1599077e-02 6.0690131e-02 -2.4472675e-02 
-5.1714138e-02 5.7205706e-02 -2.4479152e-02 
-4.7557546e-02 4.1966393e-02 2.4036417e-02 
-5.1697004e-02 5.3726288e-02 -2.4510370e-02 
-4.7377366e-02 3.5363464e-02 -1.3998420e-02 
-5.1545879e-02 5.0250155e-02 -2.4566337e-02 
-4.6972514e-02 3.8577813e-02 2.4229872e-02 
-4.7956582e-02 3.5480699e-02 -1.7495318e-02 
-5.1258281e-02 4.6777690e-02 -2.4647951e-02 
-4.6235010e-02 3.5119683e-02 2.3828726e-02 
-4.5351032e-02 3.4369926e-02 2.0349260e-02 
-4.4612824e-02 3.4296246e-02 1.6965119e-02 
-5.0830977e-02 4.3300766e-02 -2.4746960e-02 
-4.4014896e-02 3.4176808e-02 1.3557480e-02 
-4.8675984e-02 3.5550420e-02 -2.0963838e-02 
-4.3552556e-02 3.4089969e-02 1.0159528e-02 
-5.0259951e-02 3.9841681e-02 -2.4939343e-02 
-4.3222040e-02 3.4027290e-02 6.7627826e-03 
-4.3020623e-02 3.3989726e-02 3.3691845e-03 
-4.9540434e-02 3.6307035e-02 -2.4524191e-02 
-4.2946692e-02 3.3977199e-02 -2.2623575e-05 
-4.3779233e-02 6.7331414e-02 2.3228814e-02 
-4.4306973e-02 6.3960703e-02 2.3099863e-02 
-4.4700024e-02 6.0598913e-02 2.3054738e-02 
-4.2999792e-02 3.3989728e-02 -3.4134628e-03 
-4.4958401e-02 5.7245092e-02 2.3029771e-02 
-4.5081807e-02 5.3898505e-02 2.3031971e-02 
-4.3180646e-02 3.4027295e-02 -6.8041665e-03 
-4.5069402e-02 5.0558834e-02 2.3060660e-02 
-4.4919577e-02 4.7225373e-02 2.3115863e-02 
-4.6996742e-02 6.9198870e-02 -2.3948540e-02 
-4.7512530e-02 6.5768171e-02 -2.3827441e-02 
-4.7897066e-02 6.2346430e-02 -2.3785945e-02 
-4.3491132e-02 3.4089978e-02 -1.0196128e-02 
-4.8150081e-02 5.8932395e-02 -2.3764086e-02 
-4.4629757e-02 4.3899558e-02 2.3198442e-02 
-4.8270960e-02 5.5524931e-02 -2.3768463e-02 
-4.8258574e-02 5.2123213e-02 -2.3798441e-02 
-4.3934237e-02 3.4176820e-02 -1.3587466e-02 
-4.4196253e-02 4.0574798e-02 2.3300468e-02 
-4.8111115e-02 4.8725917e-02 -2.3854037e-02 
-4.3614182e-02 3.7273427e-02 2.3495030e-02 
-4.4513974e-02 3.4296264e-02 -1.6986744e-02 
-4.7825954e-02 4.5333835e-02 -2.3936134e-02 
-4.2877452e-02 3.3907621e-02 2.3108048e-02 
-4.1994397e-02 3.3164688e-02 1.9724344e-02 
-4.7399535e-02 4.1939482e-02 -2.4036639e-02 
-4.1259137e-02 3.3086949e-02 1.6438325e-02 
-4.0665205e-02 3.2965236e-02 1.3132369e-02 
-4.5235276e-02 3.4369935e-02 -2.0360880e-02 
-4.0207081e-02 3.2876525e-02 9.8386869e-03 
-4.6827334e-02 3.8565060e-02 -2.4230105e-02 
-3.9880335e-02 3.2812520e-02 6.5482983e-03 
-3.9681754e-02 3.2774159e-02 3.2624357e-03 
-4.6103859e-02 3.5119811e-02 -2.3828838e-02 
-3.9609425e-02 3.2761366e-02 -2.0968192e-05 
-4.0443211e-02 6.5261759e-02 2.2483135e-02 
-4.0980509e-02 6.1970349e-02 2.2346145e-02 
-4.1382012e-02 5.8687957e-02 2.2297298e-02 
-3.9662787e-02 3.2774160e-02 -3.3034739e-03 
-4.1648057e-02 5.5413668e-02 2.2269147e-02 
-4.1778699e-02 5.2146926e-02 2.2269123e-02 
-3.9842645e-02 3.2812522e-02 -6.5866529e-03 
-4.1773403e-02 4.8887745e-02 2.2296502e-02 
-4.1630741e-02 4.5635914e-02 2.2351306e-02 
-4.3599578e-02 6.7176203e-02 -2.3228869e-02 
-4.4125048e-02 6.3822663e-02 -2.3099957e-02 
-4.4517947e-02 6.0478151e-02 -2.3054853e-02 
-4.0151157e-02 3.2876528e-02 -9.8726059e-03 
-4.4778218e-02 5.7141527e-02 -2.3029905e-02 
-4.1348131e-02 4.2393433e-02 2.2434376e-02 
-4.4905475e-02 5.3811871e-02 -2.3032120e-02 
-4.4898768e-02 5.0488687e-02 -2.3060822e-02 
-4.0591773e-02 3.2965241e-02 -1.3160154e-02 
-4.0921632e-02 3.9154563e-02 2.2537941e-02 
-4.4756359e-02 4.7171101e-02 -2.3116034e-02 
-4.0345822e-02 3.5941763e-02 2.2733617e-02 
-4.1169150e-02 3.3086958e-02 -1.6458357e-02 
-4.4475533e-02 4.3860391e-02 -2.3198619e-02 
-3.9613770e-02 3.2670162e-02 2.2361043e-02 
-4.4052448e-02 4.0549816e-02 -2.3300646e-02 
-3.8735769e-02 3.1934132e-02 1.9075583e-02 
-3.8007171e-02 3.1852239e-02 1.5890713e-02 
-3.7420419e-02 3.1728193e-02 1.2689966e-02 
-4.1889028e-02 3.3164687e-02 -1.9735095e-02 
-3.6969069e-02 3.1637562e-02 9.5044803e-03 
-4.3482052e-02 3.7261585e-02 -2.3495219e-02 
-3.6647952e-02 3.1572197e-02 6.3246834e-03 
-3.6453316e-02 3.1533019e-02 3.1509981e-03 
-4.2758082e-02 3.3907732e-02 -2.3108123e-02 
-3.6382918e-02 3.1519953e-02 -1.9453455e-05 
-3.7186840e-02 6.3156623e-02 2.1710567e-02 
-3.7733849e-02 5.9945412e-02 2.1565264e-02 
-3.6436078e-02 3.1533018e-02 -3.1890715e-03 
-3.8143885e-02 5.6743336e-02 2.1512560e-02 
-3.8417756e-02 5.3549436e-02 2.1481123e-02 
-3.8556040e-02 5.0363296e-02 2.1478813e-02 
-3.6613699e-02 3.1572195e-02 -6.3602664e-03 
-3.8558687e-02 4.7185269e-02 2.1504851e-02 
-4.0279991e-02 6.5117576e-02 -2.2483157e-02 
-4.0815215e-02 6.1842114e-02 -2.2346204e-02 
-3.8424616e-02 4.4015701e-02 2.1559248e-02 
-4.1216577e-02 5.8575767e-02 -2.2297375e-02 
-3.6918247e-02 3.1637560e-02 -9.5359466e-03 
-4.1484350e-02 5.5317447e-02 -2.2269243e-02 
-3.8151364e-02 4.0857263e-02 2.1642809e-02 
-4.1618500e-02 5.2066430e-02 -2.2269233e-02 
-4.1618391e-02 4.8822563e-02 -2.2296624e-02 
-3.7353691e-02 3.1728190e-02 -1.2715739e-02 
-3.7734808e-02 3.7705210e-02 2.1747919e-02 
-4.1482479e-02 4.5585479e-02 -2.2351437e-02 
-3.7169000e-02 3.4582278e-02 2.1944695e-02 
-3.7925408e-02 3.1852237e-02 -1.5909288e-02 
-4.1208049e-02 4.2357031e-02 -2.2434512e-02 
-4.0791017e-02 3.9131342e-02 -2.2538079e-02 
-3.6446120e-02 3.1406732e-02 2.1586706e-02 
-3.5577941e-02 3.0677680e-02 1.8402007e-02 
-3.4860275e-02 3.0591554e-02 1.5321406e-02 
-3.8640042e-02 3.1934121e-02 -1.9085540e-02 
-3.4284355e-02 3.0465128e-02 1.2229530e-02 
-4.0225809e-02 3.5930751e-02 -2.2733766e-02 
-3.3842706e-02 3.0372536e-02 9.1563369e-03 
-3.3529343e-02 3.0305778e-02 6.0915538e-03 
-3.9505337e-02 3.2670255e-02 -2.2361085e-02 
-3.3339922e-02 3.0265761e-02 3.0346839e-03 
-3.3271838e-02 3.0252414e-02 -1.8067551e-05 
-3.4011033e-02 6.1014954e-02 2.0910264e-02 
-3.3324288e-02 3.0265758e-02 -3.0700447e-03 
-3.4568004e-02 5.7885013e-02 2.0756298e-02 
-3.4986625e-02 5.4764360e-02 2.0699578e-02 
-3.5268367e-02 5.1651868e-02 2.0664742e-02 
-3.5414565e-02 4.8547192e-02 2.0660091e-02 
-3.3498282e-02 3.0305772e-02 -6.1246011e-03 
-3.5425891e-02 4.5451026e-02 2.0684774e-02 
-3.7038894e-02 6.3022514e-02 -2.1710559e-02 
-3.7584009e-02 5.9826132e-02 -2.1565290e-02 
-3.5301831e-02 4.2364338e-02 2.0738771e-02 
-3.7993915e-02 5.6638974e-02 -2.1512603e-02 
-3.3796623e-02 3.0372527e-02 -9.1855596e-03 
-3.8269357e-02 5.3459922e-02 -2.1481183e-02 
-3.8410833e-02 5.0288401e-02 -2.1478887e-02 
-3.5040210e-02 3.9290592e-02 2.0822830e-02 
-3.8418197e-02 4.7124616e-02 -2.1504936e-02 
-3.4223854e-02 3.0465116e-02 -1.2253462e-02 
-3.4636829e-02 3.6226206e-02 2.0929480e-02 
-3.8290258e-02 4.3968765e-02 -2.1559342e-02 
-3.4786152e-02 3.0591542e-02 -1.5338649e-02 
-3.4085238e-02 3.3194384e-02 2.1127313e-02 
-3.8024430e-02 4.0823382e-02 -2.1642908e-02 
-3.7616457e-02 3.7683593e-02 -2.1748020e-02 
-3.3376673e-02 3.0116725e-02 2.0783992e-02 
-3.2523777e-02 2.9394729e-02 1.7702624e-02 
-3.1821925e-02 2.9304322e-02 1.4729524e-02 
-3.5491173e-02 3.0677656e-02 -1.8411238e-02 
-3.1260994e-02 2.9175481e-02 1.1750338e-02 
-3.7060254e-02 3.4572021e-02 -2.1944807e-02 
-3.0832364e-02 2.9080890e-02 8.7937133e-03 
-3.0529151e-02 2.9012707e-02 5.8485533e-03 
-3.6347854e-02 3.1406805e-02 -2.1586716e-02 
-3.0346374e-02 2.8971827e-02 2.9133223e-03 
-3.0281047e-02 2.8958191e-02 -1.6799361e-05 
-3.0332233e-02 2.8971821e-02 -2.9462010e-03 
-3.0916912e-02 5.8834996e-02 2.0081368e-02 
-3.1484232e-02 5.5787693e-02 1.9918273e-02 
-3.1911450e-02 5.2749881e-02 1.9857347e-02 
-3.2200951e-02 4.9720092e-02 1.9818997e-02 
-3.0501056e-02 2.9012696e-02 -5.8792805e-03 
-3.2355127e-02 4.6697951e-02 1.9811972e-02 
-3.2375691e-02 4.3684472e-02 1.9835319e-02 
-3.3877302e-02 6.0890045e-02 -2.0910227e-02 
-3.4432542e-02 5.7773911e-02 -2.0756293e-02 
-3.4851042e-02 5.4667145e-02 -2.0699589e-02 
-3.0790685e-02 2.9080874e-02 -8.8208832e-03 
-3.2262986e-02 4.0681313e-02 1.9888957e-02 
-3.5134211e-02 5.1568475e-02 -2.0664769e-02 
-3.5283308e-02 4.8477410e-02 -2.0660131e-02 
-3.2015360e-02 3.7692876e-02 1.9973542e-02 
-3.5298916e-02 4.5394506e-02 -2.0684825e-02 
-3.1206283e-02 2.9175460e-02 -1.1772587e-02 
-3.1628679e-02 3.4716949e-02 2.0081719e-02 
-3.5180415e-02 4.2320594e-02 -2.0738830e-02 
-3.1754908e-02 2.9304297e-02 -1.4745548e-02 
-3.4925516e-02 3.9259009e-02 -2.0822895e-02 
-3.1096030e-02 3.1777440e-02 2.0280531e-02 
-3.4529898e-02 3.6206051e-02 -2.0929546e-02 
-3.0407633e-02 2.8799504e-02 1.9951830e-02 
-2.9576244e-02 2.8084665e-02 1.6976446e-02 
-3.2445344e-02 2.9394691e-02 -1.7711190e-02 
-2.8895749e-02 2.7989966e-02 1.4114229e-02 
-2.8354497e-02 2.7858692e-02 1.1251736e-02 
-3.3986981e-02 3.3184813e-02 -2.1127390e-02 
-2.7942598e-02 2.7762066e-02 8.4161467e-03 
-2.7652197e-02 2.7692416e-02 5.5953963e-03 
-3.3287869e-02 3.0116778e-02 -2.0783972e-02 
-2.7477644e-02 2.7650644e-02 2.7867836e-03 
-2.7415565e-02 2.7636707e-02 -1.5638358e-05 
-2.7464892e-02 2.7650636e-02 -2.8173900e-03 
-2.7905936e-02 5.6614021e-02 1.9222991e-02 
-2.8484183e-02 5.3651178e-02 1.9050130e-02 
-2.8919959e-02 5.0698106e-02 1.8984775e-02 
-2.9216885e-02 4.7752756e-02 1.8942804e-02 
-2.7626862e-02 2.7692400e-02 -5.6239997e-03 
-2.9378804e-02 4.4814567e-02 1.8933416e-02 
-2.9408881e-02 4.1884831e-02 1.8955512e-02 
-3.0796427e-02 5.8718492e-02 -2.0081304e-02 
-3.1362164e-02 5.5684061e-02 -1.9918239e-02 
-3.1789267e-02 5.2659194e-02 -1.9857329e-02 
-2.7905018e-02 2.7762042e-02 -8.4414378e-03 
-2.9308706e-02 3.8965957e-02 1.9008897e-02 
-3.2080062e-02 4.9642289e-02 -1.9818994e-02 
-3.2236867e-02 4.6632836e-02 -1.9811981e-02 
-2.9077468e-02 3.6063461e-02 1.9094084e-02 
-3.2261310e-02 4.3631723e-02 -1.9835338e-02 
-2.8305176e-02 2.7858661e-02 -1.1272444e-02 
-2.8711296e-02 3.3176753e-02 1.9203783e-02 
-3.2153634e-02 4.0640478e-02 -1.9888984e-02 
-2.8835349e-02 2.7989929e-02 -1.4129139e-02 
-3.1912078e-02 3.7663388e-02 -1.9973575e-02 
-2.8202861e-02 3.0330746e-02 1.9403456e-02 
-3.1532396e-02 3.4698124e-02 -2.0081753e-02 
-2.7541279e-02 2.7454407e-02 1.9089159e-02 
-2.6738456e-02 2.6746881e-02 1.6222550e-02 
-2.9505576e-02 2.8084612e-02 -1.6984405e-02 
-2.6085571e-02 2.6647931e-02 1.3474800e-02 
-2.5569232e-02 2.6514213e-02 1.0733227e-02 
-3.1007553e-02 3.1768492e-02 -2.0280576e-02 
-2.5178149e-02 2.6415505e-02 8.0233428e-03 
-2.4903449e-02 2.6344332e-02 5.3319394e-03 
-3.0327650e-02 2.8799534e-02 -1.9951783e-02 
-2.4738817e-02 2.6301622e-02 2.6550187e-03 
-2.4680516e-02 2.6287367e-02 -1.4574508e-05 
-2.4727358e-02 2.6301611e-02 -2.6835430e-03 
-2.4980077e-02 5.4347965e-02 1.8334161e-02 
-2.5570097e-02 5.1472077e-02 1.8150665e-02 
-2.6014329e-02 4.8606352e-02 1.8080632e-02 
-2.6318051e-02 4.5747839e-02 1.8034967e-02 
-2.4880685e-02 2.6344312e-02 -5.3585967e-03 
-2.6487049e-02 4.2895570e-02 1.8023315e-02 
-2.6526483e-02 4.0051020e-02 1.8044358e-02 
-2.7797811e-02 5.6505201e-02 -1.9222901e-02 
-2.8374610e-02 5.3554377e-02 -1.9050069e-02 
-2.8810274e-02 5.0613386e-02 -1.8984729e-02 
-2.5144389e-02 2.6415474e-02 -8.0469125e-03 
-2.9108371e-02 4.7680060e-02 -1.8942773e-02 
-2.6439711e-02 3.7217409e-02 1.8097713e-02 
-2.9272669e-02 4.4753715e-02 -1.8933396e-02 
-2.6227194e-02 3.4401569e-02 1.8183669e-02 
-2.9306252e-02 4.1835524e-02 -1.8955503e-02 
-2.5524935e-02 2.6514171e-02 -1.0752524e-02 
-2.9210615e-02 3.8927778e-02 -1.9008895e-02 
-2.5885598e-02 3.1604842e-02 1.8294925e-02 
-2.6031340e-02 2.6647880e-02 -1.3488689e-02 
-2.8984842e-02 3.6035884e-02 -1.9094088e-02 
-2.5407250e-02 2.8853548e-02 1.8495304e-02 
-2.8624957e-02 3.3159139e-02 -1.9203788e-02 
-2.4780015e-02 2.6080767e-02 1.8194987e-02 
-2.6675031e-02 2.6746812e-02 -1.6229953e-02 
-2.4013742e-02 2.5380818e-02 1.5440164e-02 
-2.3395472e-02 2.5277704e-02 1.2810755e-02 
-2.8123518e-02 3.0322363e-02 -1.9403471e-02 
-2.2909805e-02 2.5141531e-02 1.0194615e-02 
-2.2543928e-02 2.5040663e-02 7.6153177e-03 
-2.2287956e-02 2.4967870e-02 5.0582943e-03 
-2.7469527e-02 2.7454413e-02 -1.9089087e-02 
-2.2134988e-02 2.4924145e-02 2.5181227e-03 
-2.2081005e-02 2.4909545e-02 -1.3598164e-05 
-2.2124734e-02 2.4924132e-02 -2.5447362e-03 
-2.2142055e-02 5.2030963e-02 1.7413730e-02 
-2.2745056e-02 4.9245475e-02 1.7218444e-02 
-2.3197586e-02 4.6470717e-02 1.7143482e-02 
-2.3507084e-02 4.3702407e-02 1.7094133e-02 
-2.2267589e-02 2.4967844e-02 -5.0831657e-03 
-2.3681914e-02 4.0938853e-02 1.7080464e-02 
-2.4883506e-02 5.4246186e-02 -1.8334047e-02 
-2.3729923e-02 3.8181561e-02 1.7100839e-02 
-2.5472194e-02 5.1381534e-02 -1.8150579e-02 
-2.5916316e-02 4.8527099e-02 -1.8080560e-02 
-2.2513731e-02 2.5040624e-02 -7.6373077e-03 
-2.6221093e-02 4.5679821e-02 -1.8034910e-02 
-2.3656929e-02 3.5434583e-02 1.7154578e-02 
-2.6392240e-02 4.2838620e-02 -1.8023269e-02 
-2.3465260e-02 3.2706295e-02 1.7241636e-02 
-2.6434836e-02 4.0004862e-02 -1.8044322e-02 
-2.2870195e-02 2.5141478e-02 -1.0212617e-02 
-2.6352146e-02 3.7181658e-02 -1.8097684e-02 
-2.3152518e-02 3.0000370e-02 1.7354578e-02 
-2.3346999e-02 2.5277640e-02 -1.2823706e-02 
-2.6144532e-02 3.4375735e-02 -1.8183645e-02 
-2.2710786e-02 2.7345061e-02 1.7555494e-02 
-2.5808559e-02 3.1588333e-02 -1.8294903e-02 
-2.3957081e-02 2.5380731e-02 -1.5447056e-02 
-2.2126464e-02 2.4677963e-02 1.7268503e-02 
-2.1405759e-02 2.3986029e-02 1.4628828e-02 
-2.0829890e-02 2.3878877e-02 1.2122050e-02 
-2.5336447e-02 2.8845678e-02 -1.8495290e-02 
-2.0381106e-02 2.3740194e-02 9.6362339e-03 
-2.0044982e-02 2.3637013e-02 7.1926173e-03 
-2.4715958e-02 2.6080748e-02 -1.8194891e-02 
-1.9810734e-02 2.3562425e-02 4.7750019e-03 
-1.9671088e-02 2.3517555e-02 2.3764302e-03 
-1.9621925e-02 2.3502561e-02 -1.2699948e-05 
-1.9661959e-02 2.3517540e-02 -2.4012856e-03 
-1.9395631e-02 4.9654738e-02 1.6460211e-02 
-2.0013327e-02 4.6964405e-02 1.6251667e-02 
-2.0473951e-02 4.4285638e-02 1.6171585e-02 
-1.9792607e-02 2.3562394e-02 -4.7982302e-03 
-2.0787727e-02 4.1612272e-02 1.6118722e-02 
-2.0966363e-02 3.8941459e-02 1.6103526e-02 
-2.2056295e-02 5.1935655e-02 -1.7413594e-02 
-2.2658067e-02 4.9160685e-02 -1.7218334e-02 
-2.1021276e-02 3.6274464e-02 1.6123904e-02 
-2.3110484e-02 4.6396489e-02 -1.7143386e-02 
-2.0018111e-02 2.3636967e-02 -7.2131537e-03 
-2.3420930e-02 4.3638687e-02 -1.7094052e-02 
-2.0961661e-02 3.3616141e-02 1.6178748e-02 
-2.3597696e-02 4.0885488e-02 -1.7080394e-02 
-2.3648548e-02 3.8138294e-02 -1.7100778e-02 
-2.0345873e-02 2.3740131e-02 -9.6530435e-03 
-2.0792547e-02 3.0976647e-02 1.6267517e-02 
-2.3579216e-02 3.5401059e-02 -1.7154525e-02 
-2.0513050e-02 2.8362483e-02 1.6382472e-02 
-2.0786798e-02 2.3878797e-02 -1.2134139e-02 
-2.3391928e-02 3.2682060e-02 -1.7241587e-02 
-2.0115189e-02 2.5804543e-02 1.6583804e-02 
-2.3084189e-02 2.9984873e-02 -1.7354531e-02 
-2.1355423e-02 2.3985923e-02 -1.4635251e-02 
-1.9583579e-02 2.3245508e-02 1.6309267e-02 
-1.8918657e-02 2.2562294e-02 1.3788638e-02 
-2.2647981e-02 2.7337660e-02 -1.7555455e-02 
-1.8393763e-02 2.2451206e-02 1.1409393e-02 
-1.7988361e-02 2.2309850e-02 9.0592872e-03 
-1.7686420e-02 2.2204052e-02 6.7566418e-03 
-2.2069608e-02 2.4677916e-02 -1.7268385e-02 
-1.7476573e-02 2.2127358e-02 4.4832836e-03 
-1.7351603e-02 2.2081121e-02 2.2306523e-03 
-1.7307642e-02 2.2065653e-02 -1.1870607e-05 
-1.7343526e-02 2.2081104e-02 -2.2538845e-03 
-1.6745981e-02 4.7207820e-02 1.5471524e-02 
-1.7380780e-02 4.4619144e-02 1.5247997e-02 
-1.7849311e-02 4.2043294e-02 1.5162772e-02 
-1.7460538e-02 2.2127323e-02 -4.5049942e-03 
-1.8165306e-02 3.9471531e-02 1.5106847e-02 
-1.8344728e-02 3.6899253e-02 1.5090986e-02 
-1.9320003e-02 4.9565409e-02 -1.6460054e-02 
-1.9936556e-02 4.6884932e-02 -1.6251536e-02 
-1.8403651e-02 3.4327072e-02 1.5112465e-02 
-2.0397060e-02 4.4216055e-02 -1.6171467e-02 
-1.7662658e-02 2.2203999e-02 -6.7758355e-03 
-2.0711682e-02 4.1552525e-02 -1.6118618e-02 
-1.8355856e-02 3.1760482e-02 1.5169585e-02 
-2.0892058e-02 3.8891404e-02 -1.6103434e-02 
-2.0949521e-02 3.6233866e-02 -1.6123821e-02 
-1.7957222e-02 2.2309777e-02 -9.0749956e-03 
-1.8210235e-02 2.9211632e-02 1.5261123e-02 
-2.0893177e-02 3.3584672e-02 -1.6178672e-02 
-1.7968315e-02 2.6690447e-02 1.5378785e-02 
-1.8355703e-02 2.2451113e-02 -1.1420686e-02 
-2.0727959e-02 3.0953886e-02 -1.6267446e-02 
-1.7622378e-02 2.4231434e-02 1.5580587e-02 
-2.0452888e-02 2.8347917e-02 -1.6382402e-02 
-1.8874241e-02 2.2562170e-02 -1.3794627e-02 
-1.7154818e-02 2.1783220e-02 1.5317503e-02 
-1.6557328e-02 2.1109793e-02 1.2920634e-02 
-2.0059884e-02 2.5797570e-02 -1.6583742e-02 
-1.6092733e-02 2.0994726e-02 1.0674708e-02 
-1.5737196e-02 2.0850281e-02 8.4663485e-03 
-1.5473283e-02 2.0741288e-02 6.3100994e-03 
-1.9533469e-02 2.3245431e-02 -1.6309129e-02 
-1.5289721e-02 2.0661953e-02 4.1853830e-03 
-1.5180136e-02 2.0613980e-02 2.0820590e-03 
-1.5141518e-02 2.0597908e-02 -1.1100843e-05 
-1.5173044e-02 2.0613962e-02 -2.1037843e-03 
-1.4200143e-02 4.4674568e-02 1.4444609e-02 
-1.4855401e-02 4.2196316e-02 1.4204334e-02 
-1.5275643e-02 2.0661915e-02 -4.2056844e-03 
-1.5331794e-02 3.9732807e-02 1.4114305e-02 
-1.5647360e-02 3.7271897e-02 1.4056232e-02 
-1.5823339e-02 3.4806460e-02 1.4041097e-02 
-1.6679858e-02 4.7124059e-02 -1.5471347e-02 
-1.7313581e-02 4.4544626e-02 -1.5247845e-02 
-1.7781980e-02 4.1978040e-02 -1.5162635e-02 
-1.5452430e-02 2.0741230e-02 -6.3280455e-03 
-1.5881762e-02 3.2335812e-02 1.4065362e-02 
-1.8098726e-02 3.9415486e-02 -1.5106723e-02 
-1.8279705e-02 3.6852285e-02 -1.5090874e-02 
-1.5842536e-02 2.9865719e-02 1.4126578e-02 
-1.8340908e-02 3.4288962e-02 -1.5112362e-02 
-1.5709885e-02 2.0850199e-02 -8.4810333e-03 
-1.5720058e-02 2.7410405e-02 1.4222626e-02 
-1.8296023e-02 3.1730927e-02 -1.5169489e-02 
-1.5519655e-02 2.4983898e-02 1.4344334e-02 
-1.6059382e-02 2.0994619e-02 -1.0685260e-02 
-1.8153849e-02 2.9190243e-02 -1.5261032e-02 
-1.5234538e-02 2.2625630e-02 1.4547097e-02 
-1.7915815e-02 2.6676746e-02 -1.5378695e-02 
-1.6518455e-02 2.1109651e-02 -1.2926221e-02 
-1.4844363e-02 2.0291522e-02 1.4294568e-02 
-1.7574108e-02 2.4224859e-02 -1.5580505e-02 
-1.4327748e-02 1.9629361e-02 1.2027369e-02 
-1.3933412e-02 1.9509864e-02 9.9217965e-03 
-1.3633667e-02 1.9361431e-02 7.8620390e-03 
-1.3410305e-02 1.9248208e-02 5.8575941e-03 
-1.7111032e-02 2.1783114e-02 -1.5317349e-02 
-1.3253408e-02 1.9165344e-02 3.8849857e-03 
-1.3158780e-02 1.9115053e-02 1.9326942e-03 
-1.3125225e-02 1.9098178e-02 -1.0381056e-05 
-1.3152609e-02 1.9115033e-02 -1.9530101e-03 
-1.1767529e-02 4.2033974e-02 1.3374915e-02 
-1.2447885e-02 3.9677749e-02 1.3116577e-02 
-1.3241162e-02 1.9165304e-02 -3.9039683e-03 
-1.2932465e-02 3.7339176e-02 1.3022737e-02 
-1.3244437e-02 3.5001768e-02 1.2964122e-02 
-1.3411399e-02 3.2654920e-02 1.2951824e-02 
-1.4142942e-02 4.4596049e-02 -1.4444413e-02 
-1.4797174e-02 4.2126466e-02 -1.4204163e-02 
-1.5273416e-02 3.9671633e-02 -1.4114149e-02 
-1.3392174e-02 1.9248146e-02 -5.8743717e-03 
-1.3462781e-02 3.0295750e-02 1.2981323e-02 
-1.5589640e-02 3.7219346e-02 -1.4056089e-02 
-1.5767009e-02 3.4762404e-02 -1.4040967e-02 
-1.3426508e-02 2.7929581e-02 1.3049321e-02 
-1.5827461e-02 3.2300050e-02 -1.4065241e-02 
-1.3609940e-02 1.9361344e-02 -7.8757640e-03 
-1.3324743e-02 2.5572498e-02 1.3152617e-02 
-1.5790812e-02 2.9837972e-02 -1.4126465e-02 
-1.3168813e-02 2.3243261e-02 1.3280787e-02 
-1.3904469e-02 1.9509747e-02 -9.9316539e-03 
-1.5671363e-02 2.7390312e-02 -1.4222518e-02 
-1.5474344e-02 2.4971014e-02 -1.4344228e-02 
-1.2954208e-02 2.0987947e-02 1.3485910e-02 
-1.4294066e-02 1.9629204e-02 -1.2032579e-02 
-1.5192869e-02 2.2619430e-02 -1.4546997e-02 
-1.2657416e-02 1.8771931e-02 1.3243651e-02 
-1.2237456e-02 1.8122848e-02 1.1113747e-02 
-1.1923701e-02 1.7997583e-02 9.1572617e-03 
-1.1684229e-02 1.7843396e-02 7.2538903e-03 
-1.1501491e-02 1.7724178e-02 5.4062956e-03 
-1.4806506e-02 2.0291389e-02 -1.4294400e-02 
-1.1369150e-02 1.7636385e-02 3.5876436e-03 
-1.1287268e-02 1.7582908e-02 1.7855715e-03 
-1.1257860e-02 1.7564929e-02 -9.7010004e-06 
-1.1281960e-02 1.7582889e-02 -1.8045555e-03 
-9.4604758e-03 3.9258274e-02 1.2255753e-02 
-1.1358620e-02 1.7636346e-02 -3.6053787e-03 
-1.0172256e-02 3.7039111e-02 1.1979430e-02 
-1.0666065e-02 3.4841915e-02 1.1883831e-02 
-1.0971014e-02 3.2644886e-02 1.1827264e-02 
-1.1718706e-02 4.1960464e-02 -1.3374700e-02 
-1.2398062e-02 3.9612366e-02 -1.3116389e-02 
-1.1122093e-02 3.0432908e-02 1.1820783e-02 
-1.2882465e-02 3.7281912e-02 -1.3022563e-02 
-1.1485909e-02 1.7724116e-02 -5.4219662e-03 
-1.3195007e-02 3.4952566e-02 -1.2963963e-02 
-1.1157572e-02 2.8199749e-02 1.1858872e-02 
-1.3363201e-02 3.2613660e-02 -1.2951677e-02 
-1.1115520e-02 2.5949087e-02 1.1937404e-02 
-1.3416382e-02 3.0262247e-02 -1.2981186e-02 
-1.1663855e-02 1.7843306e-02 -7.2667045e-03 
-1.1028832e-02 2.3698042e-02 1.2052066e-02 
-1.3382378e-02 2.7903575e-02 -1.3049193e-02 
-1.1898882e-02 1.7997461e-02 -9.1664589e-03 
-1.3283254e-02 2.5553654e-02 -1.3152495e-02 
-1.0918288e-02 2.1470374e-02 1.2190826e-02 
-1.3130238e-02 2.3231167e-02 -1.3280667e-02 
-1.0784377e-02 1.9320899e-02 1.2401476e-02 
-1.2208632e-02 1.8122681e-02 -1.1118599e-02 
-1.2918726e-02 2.0982111e-02 -1.3485797e-02 
-1.0600562e-02 1.7227849e-02 1.2170803e-02 
-1.0296158e-02 1.6593571e-02 1.0188205e-02 
-1.0073070e-02 1.6459463e-02 8.3916997e-03 
-9.8954554e-03 1.6296308e-02 6.6533008e-03 
-1.2625112e-02 1.8771774e-02 -1.3243473e-02 
-9.7493934e-03 1.6168250e-02 4.9665071e-03 
-9.6357907e-03 1.6073463e-02 3.3010005e-03 
-9.5619621e-03 1.6015549e-02 1.6447213e-03 
-9.5349254e-03 1.5996078e-02 -9.0492690e-06 
-9.5574629e-03 1.6015531e-02 -1.6624282e-03 
-9.6268669e-03 1.6073426e-02 -3.3175380e-03 
-7.2948345e-03 3.6311471e-02 1.1077684e-02 
-8.0464681e-03 3.4248393e-02 1.0786356e-02 
-8.5516899e-03 3.2213403e-02 1.0692633e-02 
-8.8463930e-03 3.0178508e-02 1.0641943e-02 
-9.4195138e-03 3.9189645e-02 -1.2255519e-02 
-1.0130298e-02 3.6978089e-02 -1.1979224e-02 
-8.9738828e-03 2.8123222e-02 1.0645239e-02 
-1.0623893e-02 3.4788475e-02 -1.1883641e-02 
-9.7361962e-03 1.6168190e-02 -4.9811128e-03 
-1.0929325e-02 3.2598965e-02 -1.1827090e-02 
-8.9824092e-03 2.6036814e-02 1.0696161e-02 
-1.1081491e-02 3.0394394e-02 -1.1820622e-02 
-8.9221324e-03 2.3919589e-02 1.0790181e-02 
-1.1118555e-02 2.8168469e-02 -1.1858722e-02 
-9.8782160e-03 1.6296221e-02 -6.6652368e-03 
-1.1078486e-02 2.5924801e-02 -1.1937263e-02 
-8.8402160e-03 2.1787778e-02 1.0922063e-02 
-1.0052104e-02 1.6459342e-02 -8.4002587e-03 
-1.0994077e-02 2.3680437e-02 -1.2051931e-02 
-8.7721283e-03 1.9669321e-02 1.1078135e-02 
-1.0886012e-02 2.1459066e-02 -1.2190695e-02 
-8.7286630e-03 1.7629890e-02 1.1300692e-02 
-1.0271869e-02 1.6593401e-02 -1.0192711e-02 
-1.0754679e-02 1.9315429e-02 -1.2401353e-02 
-8.6822112e-03 1.5665780e-02 1.1086435e-02 
-8.5163973e-03 1.5046802e-02 9.2643446e-03 
-8.3925810e-03 1.4897612e-02 7.6411030e-03 
-8.2732434e-03 1.4719996e-02 6.0762896e-03 
-1.0573446e-02 1.7227677e-02 -1.2170618e-02 
-8.1538710e-03 1.4578837e-02 4.5516754e-03 
-8.0483012e-03 1.4474140e-02 3.0343744e-03 
-7.9748927e-03 1.4410211e-02 1.5148175e-03 
-7.9474990e-03 1.4388687e-02 -8.4125348e-06 
-7.9711505e-03 1.4410196e-02 -1.5312761e-03 
-8.0408804e-03 1.4474110e-02 -3.0497393e-03 
-5.2904946e-03 3.3147905e-02 9.8281008e-03 
-6.0928572e-03 3.1264459e-02 9.5298687e-03 
-6.6131360e-03 2.9417117e-02 9.4438215e-03 
-6.8951968e-03 2.7571023e-02 9.4042346e-03 
-7.2612347e-03 3.6247710e-02 -1.1077432e-02 
-8.0118490e-03 3.4191729e-02 -1.0786135e-02 
-8.5168092e-03 3.2163793e-02 -1.0692429e-02 
-8.1429020e-03 1.4578786e-02 -4.5652360e-03 
-6.9916260e-03 2.5700196e-02 9.4220622e-03 
-8.8119110e-03 3.0135884e-02 -1.0641756e-02 
-6.9610840e-03 2.3788972e-02 9.4908156e-03 
-8.9403495e-03 2.8087478e-02 -1.0645066e-02 
-8.9502625e-03 2.6007787e-02 -1.0696000e-02 
-8.2589289e-03 1.4719920e-02 -6.0873605e-03 
-6.8666395e-03 2.1832386e-02 9.6061823e-03 
-8.8917016e-03 2.3897054e-02 -1.0790029e-02 
-6.7729930e-03 1.9842208e-02 9.7632019e-03 
-8.3752041e-03 1.4897502e-02 -7.6490313e-03 
-8.8117280e-03 2.1771441e-02 -1.0921920e-02 
-6.7376540e-03 1.7847227e-02 9.9468542e-03 
-8.7457108e-03 1.9658824e-02 -1.1077997e-02 
-6.7917266e-03 1.5924931e-02 1.0193276e-02 
-8.4963294e-03 1.5046640e-02 -9.2685089e-03 
-8.7043446e-03 1.7624805e-02 -1.1300563e-02 
-6.9130843e-03 1.4097088e-02 1.0007396e-02 
-6.9141126e-03 1.3490040e-02 8.3630464e-03 
-6.8940972e-03 1.3314077e-02 6.9281404e-03 
-6.8208793e-03 1.3113361e-02 5.5432844e-03 
-8.6599191e-03 1.5665608e-02 -1.1086249e-02 
-6.7100787e-03 1.2953013e-02 4.1768764e-03 
-6.5965355e-03 1.2834880e-02 2.7968644e-03 
-6.5133976e-03 1.2762917e-02 1.3999267e-03 
-6.4822406e-03 1.2738815e-02 -7.7744267e-06 
-6.5103628e-03 1.2762908e-02 -1.4151336e-03 
-6.5905177e-03 1.2834859e-02 -2.8110515e-03 
-3.4723587e-03 2.9711245e-02 8.4912361e-03 
-4.3385117e-03 2.8036120e-02 8.2026207e-03 
-4.8785474e-03 2.6406205e-02 8.1324384e-03 
-5.2637650e-03 3.3089136e-02 -9.8278304e-03 
-5.1467724e-03 2.4779275e-02 8.1105636e-03 
-6.0650538e-03 3.1212275e-02 -9.5296331e-03 
-6.5850125e-03 2.9371453e-02 -9.4436051e-03 
-6.7011860e-03 1.2952977e-02 -4.1893840e-03 
-5.2067300e-03 2.3125327e-02 8.1478645e-03 
-6.8673886e-03 2.7531809e-02 -9.4040362e-03 
-5.1269191e-03 2.1425659e-02 8.2393316e-03 
-6.9646382e-03 2.5667328e-02 -9.4218791e-03 
-6.9352957e-03 2.3762300e-02 -9.4906453e-03 
-6.8092840e-03 1.3113304e-02 -5.5534804e-03 
-4.9812654e-03 1.9669365e-02 8.3826392e-03 
-6.8423150e-03 2.1811696e-02 -9.6060228e-03 
-4.8526152e-03 1.7858399e-02 8.5738617e-03 
-6.8800477e-03 1.3313989e-02 -6.9354276e-03 
-6.7502935e-03 1.9827220e-02 -9.7630516e-03 
-4.8292497e-03 1.6014156e-02 8.8001191e-03 
-6.7166441e-03 1.7837603e-02 -9.9467112e-03 
-4.9804031e-03 1.4222659e-02 9.0911173e-03 
-6.8979472e-03 1.3489902e-02 -8.3668619e-03 
-6.7723726e-03 1.5920273e-02 -1.0193146e-02 
-5.3067039e-03 1.2540249e-02 8.9596406e-03 
-5.5084457e-03 1.1932317e-02 7.5147937e-03 
-5.5874831e-03 1.1709441e-02 6.2822506e-03 
-6.8952451e-03 1.4096938e-02 -1.0007212e-02 
-5.5349869e-03 1.1472678e-02 5.0761635e-03 
-5.4055103e-03 1.1286093e-02 3.8539531e-03 
-5.2645895e-03 1.1150164e-02 2.5927092e-03 
-5.1614551e-03 1.1068398e-02 1.3007908e-03 
-5.1234614e-03 1.1041087e-02 -7.1138568e-06 
-5.1590784e-03 1.1068395e-02 -1.3147014e-03 
-5.2598754e-03 1.1150157e-02 -2.6056750e-03 
-1.8706068e-03 2.5933853e-02 7.0504217e-03 
-2.8154648e-03 2.4502417e-02 6.7989732e-03 
-3.3790774e-03 2.3123347e-02 6.7559987e-03 
-3.4519982e-03 2.9657753e-02 -8.4909470e-03 
-4.3169877e-03 2.7988680e-02 -8.2023724e-03 
-3.6324283e-03 2.1746353e-02 6.7578676e-03 
-4.8566345e-03 2.6364729e-02 -8.1322118e-03 
-5.3985422e-03 1.1286078e-02 -3.8653658e-03 
-5.1250949e-03 2.4743692e-02 -8.1103569e-03 
-3.6547337e-03 2.0341807e-02 6.8192897e-03 
-5.1857531e-03 2.3095542e-02 -8.1476739e-03 
-3.5230840e-03 1.8894735e-02 6.9372024e-03 
-5.1069637e-03 2.1401529e-02 -8.2391543e-03 
-5.5259036e-03 1.1472650e-02 -5.0854456e-03 
-3.3150614e-03 1.7392133e-02 7.1129394e-03 
-4.9625314e-03 1.9650682e-02 -8.3824731e-03 
-3.1245356e-03 1.5821001e-02 7.3491885e-03 
-5.5764947e-03 1.1709390e-02 -6.2888639e-03 
-4.8352022e-03 1.7844894e-02 -8.5737058e-03 
-3.0763510e-03 1.4179342e-02 7.6352774e-03 
-4.8131681e-03 1.6005505e-02 -8.7999727e-03 
-5.4958539e-03 1.1932223e-02 -7.5182395e-03 
-3.3067012e-03 1.2547535e-02 8.0052844e-03 
-4.9655699e-03 1.4218492e-02 -9.0909896e-03 
-3.8796847e-03 1.1022667e-02 7.9806366e-03 
-4.3193624e-03 1.0381312e-02 6.7609244e-03 
-4.4734216e-03 1.0078266e-02 5.7354164e-03 
-5.2929250e-03 1.2540154e-02 -8.9594591e-03 
-4.3980942e-03 9.7907742e-03 4.6886815e-03 
-4.2167578e-03 9.5691220e-03 3.5803795e-03 
-4.0324649e-03 9.4128550e-03 2.4126270e-03 
-3.9044482e-03 9.3196190e-03 1.2103938e-03 
-3.8588527e-03 9.2884861e-03 -6.4025203e-06 
-3.9026783e-03 9.3196247e-03 -1.2229086e-03 
-4.0289512e-03 9.4128653e-03 -2.4242774e-03 
-5.2770197e-04 2.1738060e-02 5.4866556e-03 
-1.5621382e-03 2.0595098e-02 5.3214142e-03 
-2.1458616e-03 1.9503062e-02 5.3151130e-03 
-1.8560868e-03 2.5886118e-02 -7.0501147e-03 
-2.7996495e-03 2.4460153e-02 -6.7987150e-03 
-3.3627975e-03 2.3086446e-02 -6.7557655e-03 
-4.2115575e-03 9.5691343e-03 -3.5906115e-03 
-2.3794336e-03 1.8401413e-02 5.3472960e-03 
-3.6163125e-03 2.1714751e-02 -6.7576557e-03 
-2.3681811e-03 1.7269611e-02 5.4319550e-03 
-3.6392080e-03 2.0315421e-02 -6.8190944e-03 
-2.1977801e-03 1.6111028e-02 5.5774576e-03 
-3.5084071e-03 1.8873428e-02 -6.9370200e-03 
-4.3913083e-03 9.7907844e-03 -4.6969743e-03 
-1.9361307e-03 1.4923134e-02 5.7888880e-03 
-3.3013676e-03 1.7375699e-02 -7.1127677e-03 
-1.6662287e-03 1.3680555e-02 6.0726051e-03 
-4.4652154e-03 1.0078268e-02 -5.7412944e-03 
-3.1118677e-03 1.5809174e-02 -7.3490270e-03 
-1.5393632e-03 1.2336365e-02 6.4410812e-03 
-3.0646751e-03 1.4171808e-02 -7.6351266e-03 
-4.3099945e-03 1.0381285e-02 -6.7639598e-03 
-1.7960739e-03 1.0926876e-02 6.9324514e-03 
-3.2959025e-03 1.2543953e-02 -8.0051582e-03 
-2.6515856e-03 9.5791616e-03 7.1187762e-03 
-3.3589338e-03 8.8303133e-03 6.1480249e-03 
-3.5276962e-03 8.4068581e-03 5.3053355e-03 
-3.8695394e-03 1.1022671e-02 -7.9804508e-03 
-3.3679851e-03 8.0490477e-03 4.3624555e-03 
-3.1096859e-03 7.7912941e-03 3.3187777e-03 
-2.8836286e-03 7.6126602e-03 2.2218795e-03 
-2.7391830e-03 7.5076771e-03 1.1091268e-03 
-2.6898631e-03 7.4735850e-03 -5.6011914e-06 
-2.7379623e-03 7.5076924e-03 -1.1200704e-03 
-2.8812006e-03 7.6126904e-03 -2.2320524e-03 
5.1166914e-04 1.7033670e-02 3.8025437e-03 
-6.2582135e-04 1.6244950e-02 3.7787553e-03 
-5.1842689e-04 2.1696807e-02 -5.4863306e-03 
-1.5513954e-03 2.0558652e-02 -5.3211513e-03 
-1.2064038e-03 1.5478396e-02 3.8242281e-03 
-2.1345832e-03 1.9471300e-02 -5.3148777e-03 
-3.1060818e-03 7.7913386e-03 -3.3276856e-03 
-1.4008971e-03 1.4662028e-02 3.8775150e-03 
-2.3682654e-03 1.8374294e-02 -5.3470839e-03 
-1.3644707e-03 1.3804881e-02 3.9825510e-03 
-2.3575020e-03 1.7247069e-02 -5.4317584e-03 
-1.1900745e-03 1.2949809e-02 4.1484275e-03 
-2.1877768e-03 1.6092927e-02 -5.5772721e-03 
-3.3632647e-03 8.0491048e-03 -4.3696372e-03 
-9.2052903e-04 1.2122582e-02 4.3914324e-03 
-1.9268718e-03 1.4909264e-02 -5.7887110e-03 
-5.9484189e-04 1.1308442e-02 4.7259817e-03 
-3.5219719e-03 8.4069262e-03 -5.3103808e-03 
-1.6577069e-03 1.3670653e-02 -6.0724362e-03 
-3.3767244e-04 1.0415905e-02 5.1665548e-03 
-1.5315123e-03 1.2330132e-02 -6.4409215e-03 
-3.3524089e-03 8.8303766e-03 -6.1505823e-03 
-5.0726597e-04 9.3662611e-03 5.8414083e-03 
-1.7887662e-03 1.0924000e-02 -6.9323203e-03 
-1.6428078e-03 8.2312006e-03 6.4131858e-03 
-2.6088214e-03 7.2469022e-03 5.7002535e-03 
-2.6445992e-03 9.5793234e-03 -7.1185639e-03 
-2.6722446e-03 6.6427644e-03 4.9426787e-03 
-2.3720396e-03 6.2282270e-03 3.9965277e-03 
-2.0545824e-03 5.9325509e-03 2.9705133e-03 
-1.8232534e-03 5.7344119e-03 1.9525503e-03 
-1.6887151e-03 5.6237365e-03 9.6394702e-04 
-1.6447051e-03 5.5874496e-03 -4.6544581e-06 
-1.6879727e-03 5.6237616e-03 -9.7303739e-04 
-1.8217728e-03 5.7344629e-03 -1.9609884e-03 
1.1140342e-03 1.1738774e-02 1.9752485e-03 
5.1637599e-04 1.6999958e-02 -3.8022093e-03 
-6.6620216e-05 1.1394245e-02 2.2414362e-03 
-6.1940147e-04 1.6215219e-02 -3.7784924e-03 
-5.7142901e-04 1.0988788e-02 2.2984794e-03 
-1.1994072e-03 1.5452545e-02 -3.8240001e-03 
-2.0523732e-03 5.9326293e-03 -2.9778775e-03 
-6.8379752e-04 1.0433044e-02 2.3727200e-03 
-1.3939918e-03 1.4640071e-02 -3.8773082e-03 
-6.3713461e-04 9.8282545e-03 2.4846157e-03 
-1.3579575e-03 1.3786772e-02 -3.9823571e-03 
-5.0892582e-04 9.2639452e-03 2.6512836e-03 
-1.1840549e-03 1.2935400e-02 -4.1482416e-03 
-2.3691224e-03 6.2283353e-03 -4.0024203e-03 
-3.1031087e-04 8.7904117e-03 2.8958042e-03 
-9.1501394e-04 1.2111653e-02 -4.3912503e-03 
-2.6686698e-03 6.6429078e-03 -4.9467525e-03 
-2.9381588e-05 8.4359613e-03 3.2638214e-03 
-5.8978966e-04 1.1300743e-02 -4.7258018e-03 
3.1995774e-04 8.1535157e-03 3.7826146e-03 
-3.3299671e-04 1.0411169e-02 -5.1663771e-03 
-2.6047191e-03 7.2470687e-03 -5.7022326e-03 
4.1227093e-04 7.7446402e-03 4.5463052e-03 
-5.0284154e-04 9.3642207e-03 -5.8412597e-03 
-8.7100784e-04 6.9148241e-03 5.8162901e-03 
-1.6384554e-03 8.2315859e-03 -6.4128988e-03 
-1.9565701e-03 5.4482413e-03 5.3040847e-03 
-1.7440393e-03 4.7567397e-03 4.3845712e-03 
-1.3505042e-03 4.2840834e-03 3.3386193e-03 
-1.0743694e-03 3.9663530e-03 2.3732566e-03 
-9.0553274e-04 3.7754354e-03 1.5172875e-03 
-8.1523917e-04 3.6686726e-03 7.3768454e-04 
-7.8679348e-04 3.6349087e-03 -3.4839418e-06 
-8.1488242e-04 3.6687063e-03 -7.4448778e-04 
-9.0481875e-04 3.7755040e-03 -1.5235977e-03 
1.1151813e-03 1.1714090e-02 -1.9748885e-03 
1.2769949e-03 5.6892355e-03 4.1008016e-05 
-6.3589090e-05 1.1372461e-02 -2.2411979e-03 
1.7948845e-05 6.0944879e-03 7.2938317e-04 
-5.6787225e-04 1.0969885e-02 -2.2982690e-03 
-1.0732967e-03 3.9664595e-03 -2.3787492e-03 
-1.8762502e-04 5.9329666e-03 6.9056681e-04 
-6.8036143e-04 1.0417161e-02 -2.3725276e-03 
-1.9948547e-04 5.5851746e-03 7.3938515e-04 
-6.3397339e-04 9.8153290e-03 -2.4844335e-03 
-1.7330541e-04 5.2355849e-03 8.2966715e-04 
-5.0605766e-04 9.2537944e-03 -2.6511033e-03 
-1.3490688e-03 4.2842339e-03 -3.3429768e-03 
-1.2537031e-04 4.9428476e-03 9.8674388e-04 
-3.0771645e-04 8.7828202e-03 -2.8956212e-03 
-5.2253302e-05 4.7487262e-03 1.2191639e-03 
-1.7422339e-03 4.7569534e-03 -4.3875023e-03 
-2.7015603e-05 8.4307177e-03 -3.2636323e-03 
6.2870576e-05 4.7080276e-03 1.5462300e-03 
3.2218181e-04 8.1504245e-03 -3.7824105e-03 
2.6363541e-04 4.8720505e-03 2.0897507e-03 
-1.9544290e-03 5.4485044e-03 -5.3053588e-03 
4.1447376e-04 7.7435329e-03 -4.5461182e-03 
6.0740072e-04 5.3402420e-03 2.8593934e-03 
-8.6870169e-04 6.9154816e-03 -5.8158501e-03 
-3.2607828e-04 5.2773329e-03 4.9711278e-03 
-1.0715400e-03 3.2404660e-03 4.1729747e-03 
-6.3899364e-04 2.5639470e-03 2.9207942e-03 
-4.2095235e-04 2.0928055e-03 2.0430198e-03 
-3.0867316e-04 1.8333218e-03 1.3785803e-03 
-2.4775057e-04 1.6668830e-03 8.5653002e-04 
-2.1718288e-04 1.5752046e-03 4.0998765e-04 
-2.0782564e-04 1.5455934e-03 -1.9809017e-06 
-2.1708673e-04 1.5752519e-03 -4.1385688e-04 
-2.4755748e-04 1.6669789e-03 -8.6012092e-04 
1.2755411e-03 5.6759702e-03 -4.0650205e-05 
1.8921172e-05 6.0821904e-03 -7.2917199e-04 
0.0000000e+00 0.0000000e+00 0.0000000e+00 
0.0000000e+00 0.0000000e+00 0.0000000e+00 
-1.8654014e-04 5.9224681e-03 -6.9037290e-04 
-3.0838103e-04 1.8334692e-03 -1.3817061e-03 
0.0000000e+00 0.0000000e+00 0.0000000e+00 
-1.9851191e-04 5.5765634e-03 -7.3920533e-04 
0.0000000e+00 0.0000000e+00 0.0000000e+00 
-1.7244081e-04 5.2287104e-03 -8.2948469e-04 
0.0000000e+00 0.0000000e+00 0.0000000e+00 
-1.2460313e-04 4.9375403e-03 -9.8655335e-04 
-4.2055604e-04 2.0930083e-03 -2.0454877e-03 
0.0000000e+00 0.0000000e+00 0.0000000e+00 
-5.1569922e-05 4.7448252e-03 -1.2189601e-03 
0.0000000e+00 0.0000000e+00 0.0000000e+00 
-6.3847672e-04 2.5642194e-03 -2.9224097e-03 
6.3488923e-05 4.7053980e-03 -1.5460084e-03 
0.0000000e+00 0.0000000e+00 0.0000000e+00 
2.6422836e-04 4.8705903e-03 -2.0895025e-03 
0.0000000e+00 0.0000000e+00 0.0000000e+00 
-1.0708388e-03 3.2408146e-03 -4.1734950e-03 
6.0808474e-04 5.3399667e-03 -2.8591227e-03 
0.0000000e+00 0.0000000e+00 0.0000000e+00 
-3.2531306e-04 5.2781895e-03 -4.9704891e-03 
0.0000000e+00 0.0000000e+00 0.0000000e+00 
0.0000000e+00 0.0000000e+00 0.0000000e+00 
0.0000000e+00 0.0000000e+00 0.0000000e+00 
0.0000000e+00 0.0000000e+00 0.0000000e+00 
0.0000000e+00 0.0000000e+00 0.0000000e+00 
0.0000000e+00 0.0000000e+00 0.0000000e+00 
0.0000000e+00 0.0000000e+00 0.0000000e+00 
0.0000000e+00 0.0000000e+00 0.0000000e+00 
0.0000000e+00 0.0000000e+00 0.0000000e+00 
0.0000000e+00 0.0000000e+00 0.0000000e+00 
0.0000000e+00 0.0000000e+00 0.0000000e+00 
0.0000000e+00 0.0000000e+00 0.0000000e+00 
0.0000000e+00 0.0000000e+00 0.0000000e+00 
0.0000000e+00 0.0000000e+00 0.0000000e+00 
0.0000000e+00 0.0000000e+00 0.0000000e+00 
0.0000000e+00 0.0000000e+00 0.0000000e+00 
0.0000000e+00 0.0000000e+00 0.0000000e+00 
0.0000000e+00 0.0000000e+00 0.0000000e+00 
0.0000000e+00 0.0000000e+00 0.0000000e+00 
0.0000000e+00 0.0000000e+00 0.0000000e+00 
0.0000000e+00 0.0000000e+00 0.0000000e+00 
0.0000000e+00 0.0000000e+00 0.0000000e+00 
0.0000000e+00 0.0000000e+00 0.0000000e+00 
0.0000000e+00 0.0000000e+00 0.0000000e+00 
0.0000000e+00 0.0000000e+00 0.0000000e+00 
REACTION_MOMENT 3 3535  float
-1.5290680e+04 8.1990411e+03 -5.4759468e+03 
-2.7546874e+04 1.7055748e+04 -3.7383748e+03 
-2.7827979e+04 1.7074102e+04 -3.8136068e+03 
-5.5406053e+04 3.4058218e+04 -7.5297132e+03 
-2.7232374e+04 1.6971307e+04 -3.6995909e+03 
-2.8363074e+04 1.7137400e+04 -3.8950047e+03 
-5.6430539e+04 3.4118340e+04 -7.6000790e+03 
-5.4754347e+04 3.3776631e+04 -7.4675670e+03 
-5.5671619e+04 3.3653125e+04 -7.5165198e+03 
-2.6731623e+04 1.6811471e+04 -3.6458062e+03 
-2.9399843e+04 1.7309370e+04 -4.0284015e+03 
-5.8410870e+04 3.4367880e+04 -7.7346304e+03 
-5.3723998e+04 3.3342063e+04 -7.3674628e+03 
-5.7396843e+04 3.3637039e+04 -7.6098581e+03 
-5.4483556e+04 3.3026245e+04 -7.3966288e+03 
-2.6058917e+04 1.6575038e+04 -3.5785577e+03 
-3.1275941e+04 1.7616546e+04 -4.2697502e+03 
-6.1762404e+04 3.4796411e+04 -7.9350843e+03 
-5.2340959e+04 3.2766419e+04 -7.2376028e+03 
-5.5850580e+04 3.2748831e+04 -7.4552724e+03 
-5.2920635e+04 3.2278394e+04 -7.2491256e+03 
-6.0001908e+04 3.3611305e+04 -7.7376603e+03 
-5.3929329e+04 3.1790379e+04 -7.2810258e+03 
-3.4348258e+04 1.7880554e+04 -4.6264880e+03 
-2.5245753e+04 1.6274963e+04 -3.5008320e+03 
-5.7737080e+04 3.2380567e+04 -7.5339056e+03 
-5.0673147e+04 3.2083612e+04 -7.0858047e+03 
-6.6614097e+04 3.5030178e+04 -8.1620891e+03 
-6.3186345e+04 3.3258492e+04 -7.8802610e+03 
-5.1080945e+04 3.1459540e+04 -7.0823923e+03 
-5.5241693e+04 3.1199314e+04 -7.3239445e+03 
-5.1783306e+04 3.0820730e+04 -7.0934389e+03 
-5.9846564e+04 3.1731464e+04 -7.6115716e+03 
-3.7221034e+04 1.7472874e+04 -4.6563298e+03 
-2.4329788e+04 1.5928832e+04 -3.4156646e+03 
-7.1175983e+04 3.4100614e+04 -8.4183032e+03 
-4.8801763e+04 3.1331284e+04 -6.9186872e+03 
-4.9062875e+04 3.0609672e+04 -6.9029391e+03 
-6.6071335e+04 3.2233493e+04 -7.9797069e+03 
-5.6629285e+04 3.0393251e+04 -7.3639363e+03 
-5.2663950e+04 3.0091304e+04 -7.1109032e+03 
-4.9522555e+04 2.9870485e+04 -6.8975447e+03 
-6.1682886e+04 3.0647084e+04 -7.6591209e+03 
-3.8493895e+04 1.6469295e+04 -4.5082483e+03 
-2.3347287e+04 1.5553520e+04 -3.3256475e+03 
-5.3550842e+04 2.9201472e+04 -7.1251450e+03 
-7.3514742e+04 3.2151166e+04 -8.4706278e+03 
-4.6802535e+04 3.0541365e+04 -6.7414538e+03 
-5.7770532e+04 2.9291274e+04 -7.3841203e+03 
-5.0084760e+04 2.9058278e+04 -6.8956510e+03 
-4.6946802e+04 2.9755965e+04 -6.7157444e+03 
-6.7748815e+04 3.0505857e+04 -7.9765258e+03 
-4.7221746e+04 2.8954681e+04 -6.6971953e+03 
-6.2698732e+04 2.9098608e+04 -7.6443817e+03 
-5.4238443e+04 2.8110624e+04 -7.1263247e+03 
-5.0625705e+04 2.8128977e+04 -6.8902287e+03 
-3.8611486e+04 1.5243627e+04 -4.2752089e+03 
-2.2328873e+04 1.5162893e+04 -3.2328643e+03 
-5.8355336e+04 2.7898129e+04 -7.3730979e+03 
-7.3737125e+04 2.9751652e+04 -8.2986866e+03 
-4.4737663e+04 2.9737822e+04 -6.5581452e+03 
-4.7553740e+04 2.8097450e+04 -6.6800588e+03 
-6.7711463e+04 2.8255308e+04 -7.7939673e+03 
-4.4792760e+04 2.8915513e+04 -6.5245648e+03 
-5.1007211e+04 2.7060745e+04 -6.8745348e+03 
-4.4931368e+04 2.8080462e+04 -6.4955733e+03 
-6.2587773e+04 2.7240226e+04 -7.5660149e+03 
-4.7853684e+04 2.7155526e+04 -6.6589419e+03 
-5.4532259e+04 2.6831219e+04 -7.1087062e+03 
-5.8184524e+04 2.6324025e+04 -7.3366798e+03 
-4.5098845e+04 2.7203906e+04 -6.4664892e+03 
-3.8384771e+04 1.3858018e+04 -3.8065351e+03 
-2.1298374e+04 1.4767283e+04 -3.1389100e+03 
-7.2033664e+04 2.6853730e+04 -7.7204437e+03 
-4.2654447e+04 2.8937330e+04 -6.3718865e+03 
-6.6082922e+04 2.5860947e+04 -7.5179454e+03 
-4.8027719e+04 2.6114667e+04 -6.6278384e+03 
-5.1103323e+04 2.5858044e+04 -6.8406540e+03 
-4.2643766e+04 2.8098471e+04 -6.3322566e+03 
-5.4299151e+04 2.5405694e+04 -7.0600434e+03 
-4.5231967e+04 2.6266307e+04 -6.4328893e+03 
-6.1352908e+04 2.5407150e+04 -7.4964797e+03 
-4.2684059e+04 2.7250162e+04 -6.2952047e+03 
-5.7203164e+04 2.4683719e+04 -7.2637254e+03 
-4.2735958e+04 2.6371809e+04 -6.2569628e+03 
-4.7993551e+04 2.4981386e+04 -6.5815638e+03 
-5.0828832e+04 2.4554083e+04 -6.7815396e+03 
-3.3663760e+04 7.9114695e+03 -3.3651448e+03 
-2.0273224e+04 1.4373895e+04 -3.0449873e+03 
-4.5266850e+04 2.5259704e+04 -6.3904318e+03 
-6.9081471e+04 4.5264231e+03 -1.4951870e+04 
-3.1948644e+04 -7.3337992e+03 -1.1126426e+04 
-4.0587052e+04 2.8150789e+04 -6.1850757e+03 
-6.4930547e+04 -1.4297640e+04 -2.2450557e+04 
-6.5613959e+04 4.9466999e+03 -1.4450450e+04 
-3.0783775e+04 -6.8441103e+03 -1.1187813e+04 
-4.0529238e+04 2.7310211e+04 -6.1409527e+03 
-6.3915192e+04 -1.4026312e+04 -2.2207442e+04 
-6.1013583e+04 -1.3301865e+04 -2.2484309e+04 
-4.2755210e+04 2.5450582e+04 -6.2142284e+03 
-5.3498506e+04 2.3937493e+04 -6.9842318e+03 
-5.9944155e+04 -1.3280668e+04 -2.2717982e+04 
-6.1912697e+04 5.2451871e+03 -1.3929185e+04 
-2.9449389e+04 -6.5004876e+03 -1.1351308e+04 
-4.0500383e+04 2.6463155e+04 -6.0978900e+03 
-5.8187336e+04 -1.2672499e+04 -2.2821775e+04 
-6.1444004e+04 -1.3233152e+04 -2.1240655e+04 
-4.7697466e+04 2.3776876e+04 -6.5139546e+03 
-5.6801697e+04 -1.2632434e+04 -2.3036980e+04 
-5.8180025e+04 -1.2843370e+04 -2.2292618e+04 
-4.5149689e+04 2.4189628e+04 -6.3351565e+03 
-5.8357838e+04 5.3145136e+03 -1.3524717e+04 
-2.8243840e+04 -6.2361244e+03 -1.1542966e+04 
-4.0472788e+04 2.5595149e+04 -6.0529975e+03 
-5.8648182e+04 -1.2577004e+04 -2.0626587e+04 
-5.5719987e+04 -1.2174146e+04 -2.3190175e+04 
-5.0159699e+04 2.3223795e+04 -6.7011760e+03 
-4.2698604e+04 2.4481834e+04 -6.1637359e+03 
-5.5276224e+04 -1.2371066e+04 -2.2884553e+04 
-5.5969882e+04 -1.2299628e+04 -2.1729509e+04 
-5.4295316e+04 -1.2136221e+04 -2.3395029e+04 
-1.9265604e+04 1.3987397e+04 -2.9519563e+03 
-3.8558961e+04 2.7384749e+04 -5.9994973e+03 
-5.3458602e+04 -1.1982396e+04 -2.2531984e+04 
-5.5042530e+04 5.3097448e+03 -1.3196088e+04 
-2.7177002e+04 -6.0278490e+03 -1.1756542e+04 
-4.0416007e+04 2.4697797e+04 -6.0038352e+03 
-3.8468477e+04 2.6552883e+04 -5.9521617e+03 
-5.2794252e+04 -1.1941085e+04 -2.3339094e+04 
-5.5849422e+04 -1.2008824e+04 -2.0191764e+04 
-5.3551930e+04 -1.1771629e+04 -2.3585660e+04 
-4.4847869e+04 2.3072551e+04 -6.2633478e+03 
-5.3631456e+04 -1.1801398e+04 -2.1278937e+04 
-5.2102788e+04 -1.1723843e+04 -2.3751461e+04 
-4.7129889e+04 2.2566677e+04 -6.4339438e+03 
-4.2531393e+04 2.3471157e+04 -6.1030172e+03 
-3.8392375e+04 2.5717150e+04 -5.9048313e+03 
-5.1174543e+04 -1.1647705e+04 -2.3116590e+04 
-5.1469175e+04 -1.1559517e+04 -2.2130870e+04 
-5.0646644e+04 -1.1567521e+04 -2.3740774e+04 
-5.1978054e+04 5.2753973e+03 -1.2920344e+04 
-2.6186663e+04 -5.8508430e+03 -1.1963710e+04 
-4.0301210e+04 2.3768817e+04 -5.9481535e+03 
-3.8311634e+04 2.4867445e+04 -5.8553141e+03 
-5.3155470e+04 -1.1509971e+04 -1.9868425e+04 
-5.1576669e+04 -1.1429366e+04 -2.3978243e+04 
-5.1288833e+04 -1.1343682e+04 -2.0904913e+04 
-5.0141738e+04 -1.1374090e+04 -2.4106905e+04 
-4.9122443e+04 -1.1329745e+04 -2.3590884e+04 
-4.9425710e+04 -1.1303495e+04 -2.2808751e+04 
-1.8283576e+04 1.3610567e+04 -2.8604111e+03 
-4.9419654e+04 -1.1151752e+04 -2.1763706e+04 
-4.4360614e+04 2.1963916e+04 -6.1854577e+03 
-3.6585519e+04 2.6642633e+04 -5.8164173e+03 
-4.8715615e+04 -1.1237638e+04 -2.4108402e+04 
-4.2234457e+04 2.2430413e+04 -6.0295379e+03 
-3.8205740e+04 2.3998507e+04 -5.8019109e+03 
-3.6473348e+04 2.5826565e+04 -5.7668981e+03 
-2.5261410e+04 -5.6959906e+03 -1.2161186e+04 
-4.9146721e+04 5.2337044e+03 -1.2679677e+04 
-4.0106335e+04 2.2813200e+04 -5.8844108e+03 
-5.0595789e+04 -1.1059112e+04 -1.9605956e+04 
-4.7526382e+04 -1.1042184e+04 -2.3351821e+04 
-4.9739701e+04 -1.1128001e+04 -2.4355443e+04 
-4.7602056e+04 -1.0945080e+04 -2.2475726e+04 
-4.7263270e+04 -1.1036241e+04 -2.4000055e+04 
-4.8335127e+04 -1.1068376e+04 -2.4452510e+04 
-3.6366190e+04 2.5008828e+04 -5.7166868e+03 
-4.8999409e+04 -1.0922827e+04 -2.0589410e+04 
-3.8055810e+04 2.3109407e+04 -5.7430924e+03 
-4.6944789e+04 -1.0944050e+04 -2.4452977e+04 
-4.7369275e+04 -1.0763197e+04 -2.1428823e+04 
-3.6251333e+04 2.4182431e+04 -5.6641452e+03 
-4.5869221e+04 -1.0730011e+04 -2.3066087e+04 
-4.5766996e+04 -1.0788203e+04 -2.3807299e+04 
-4.1811822e+04 2.1408013e+04 -5.9546735e+03 
-2.4381711e+04 -5.5562840e+03 -1.2344295e+04 
-4.6523607e+04 5.1911950e+03 -1.2462910e+04 
-3.9820740e+04 2.1839381e+04 -5.8108809e+03 
-4.8174616e+04 -1.0643983e+04 -1.9379149e+04 
-4.5546284e+04 -1.0765494e+04 -2.4363988e+04 
-4.5751580e+04 -1.0591757e+04 -2.2149991e+04 
-4.8001805e+04 -1.0855551e+04 -2.4710138e+04 
-4.6787324e+04 -1.0530174e+04 -2.0311156e+04 
-4.6636643e+04 -1.0795047e+04 -2.4782944e+04 
-3.6115302e+04 2.3344208e+04 -5.6081252e+03 
-1.7332163e+04 1.3244815e+04 -2.7707278e+03 
-3.7848198e+04 2.2204501e+04 -5.6779819e+03 
-3.4676076e+04 2.5925700e+04 -5.6366777e+03 
-4.4231249e+04 -1.0512501e+04 -2.3560280e+04 
-3.4550434e+04 2.5130021e+04 -5.5857721e+03 
-4.5351809e+04 -1.0394330e+04 -2.1122806e+04 
-4.5284718e+04 -1.0678590e+04 -2.4775808e+04 
-4.4178732e+04 -1.0410235e+04 -2.2762012e+04 
-4.4127043e+04 -1.0545415e+04 -2.4200146e+04 
-3.4424024e+04 2.4334492e+04 -5.5337511e+03 
-4.3935392e+04 -1.0514728e+04 -2.4692791e+04 
-4.3905989e+04 -1.0248034e+04 -2.1836483e+04 
-3.5946046e+04 2.2494033e+04 -5.5476305e+03 
-2.3534660e+04 -5.4277338e+03 -1.2511623e+04 
-4.4083710e+04 5.1500534e+03 -1.2262176e+04 
-3.9450608e+04 2.0890097e+04 -5.7391117e+03 
-4.5886500e+04 -1.0255895e+04 -1.9172429e+04 
-4.6333614e+04 -1.0604301e+04 -2.5038410e+04 
-4.5011242e+04 -1.0546579e+04 -2.5095179e+04 
-4.2683703e+04 -1.0297597e+04 -2.3981478e+04 
-4.2667182e+04 -1.0223170e+04 -2.3282491e+04 
-3.7577438e+04 2.1289346e+04 -5.6052503e+03 
-4.4662409e+04 -1.0159809e+04 -2.0057109e+04 
-3.4288630e+04 2.3534273e+04 -5.4793832e+03 
-4.2580316e+04 -1.0313688e+04 -2.4543571e+04 
-4.2479639e+04 -1.0092163e+04 -2.2455393e+04 
-4.3385511e+04 -1.0042205e+04 -2.0837540e+04 
-4.3698477e+04 -1.0435164e+04 -2.5076576e+04 
-3.5735447e+04 2.1635549e+04 -5.4821971e+03 
-3.4135700e+04 2.2727589e+04 -5.4219269e+03 
-8.9027282e+03 -1.0354352e+03 -1.4756751e+03 
-1.6414200e+04 1.2890631e+04 -2.6831223e+03 
-3.2835722e+04 2.5233786e+04 -5.4607879e+03 
-1.7637232e+04 -1.8865117e+03 2.4532048e+03 
-1.7580563e+04 -1.8536234e+03 2.4639685e+03 
-4.2398284e+04 -1.0279552e+04 -2.4988569e+04 
-4.2086213e+04 -9.9152572e+03 -2.1535829e+04 
-4.1221260e+04 -1.0033754e+04 -2.3726636e+04 
-3.5185285e+04 -3.7540363e+03 4.9181020e+03 
-4.1214427e+04 -1.0087001e+04 -2.4343621e+04 
-1.7726126e+04 -1.9184634e+03 2.4537853e+03 
-1.7516367e+04 -1.8183187e+03 2.4601270e+03 
-2.2714580e+04 -5.3072484e+03 -1.2661010e+04 
-4.1804588e+04 5.1104027e+03 -1.2072058e+04 
-3.2702672e+04 2.4461292e+04 -5.4091019e+03 
-4.1090703e+04 -9.9293338e+03 -2.2989364e+04 
-4.3722792e+04 -9.8890295e+03 -1.8976420e+04 
-3.5019186e+04 -3.7061454e+03 4.8954543e+03 
-3.5312983e+04 -3.8230710e+03 4.9322563e+03 
-4.4713253e+04 -1.0369799e+04 -2.5339400e+04 
-3.7250413e+04 2.0402551e+04 -5.5363983e+03 
-4.3427808e+04 -1.0318887e+04 -2.5389452e+04 
-3.5081981e+04 -3.7954853e+03 4.9006280e+03 
-4.2627306e+04 -9.8071388e+03 -1.9817858e+04 
-3.2565501e+04 2.3690413e+04 -5.3560683e+03 
-1.7872844e+04 -1.9595434e+03 2.4611497e+03 
-1.7429117e+04 -1.7661893e+03 2.4522268e+03 
-3.3957820e+04 2.1914731e+04 -5.3607499e+03 
-4.1103418e+04 -1.0091103e+04 -2.4843432e+04 
-3.4817505e+04 -3.6199026e+03 4.8663922e+03 
-3.5559551e+04 -3.9051228e+03 4.9577478e+03 
-4.0790631e+04 -9.7792374e+03 -2.2151254e+04 
-3.5481114e+04 2.0772071e+04 -5.4107111e+03 
-4.1480266e+04 -9.7042258e+03 -2.0566689e+04 
-3.4832332e+04 -3.7321446e+03 4.8650363e+03 
-3.5261909e+04 -3.8871416e+03 4.9145244e+03 
-4.2156042e+04 -1.0208298e+04 -2.5352057e+04 
-3.2419145e+04 2.2917773e+04 -5.3007494e+03 
-1.8073685e+04 -2.0090318e+03 2.4739968e+03 
-1.7318605e+04 -1.7047682e+03 2.4415562e+03 
-3.9837754e+04 -9.8442173e+03 -2.4106998e+04 
-3.9748066e+04 -9.7621077e+03 -2.3449364e+04 
-3.4575523e+04 -3.5132130e+03 4.8334861e+03 
-3.5919283e+04 -4.0003194e+03 4.9939802e+03 
-3.4959128e+04 -3.8412537e+03 4.8714150e+03 
-3.4552759e+04 -3.6483727e+03 4.8272536e+03 
-4.0905810e+04 -1.0055189e+04 -2.5249471e+04 
-3.5558194e+04 -3.9844830e+03 4.9374261e+03 
-4.0305487e+04 -9.5927300e+03 -2.1245331e+04 
-3.9808656e+04 -9.8803380e+03 -2.4654095e+04 
-3.9516340e+04 -9.6361532e+03 -2.2689805e+04 
-3.3750458e+04 2.1098684e+04 -5.2956514e+03 
-1.8330852e+04 -2.0653345e+03 2.4914540e+03 
-1.7185065e+04 -1.6390456e+03 2.4287873e+03 
-2.1910321e+04 -5.1964607e+03 -1.2799613e+04 
-3.9666978e+04 5.0718812e+03 -1.1888746e+04 
-3.2258435e+04 2.2142490e+04 -5.2426868e+03 
-3.4636771e+04 -3.7785381e+03 4.8287476e+03 
-3.5201358e+04 -3.9508349e+03 4.8859068e+03 
-4.1673995e+04 -9.5392373e+03 -1.8784957e+04 
-3.4291486e+04 -3.3974290e+03 4.7980416e+03 
-4.3121840e+04 -1.0152823e+04 -2.5620035e+04 
-3.6393904e+04 -4.1066917e+03 5.0399494e+03 
-3.9676016e+04 -9.8740541e+03 -2.5099040e+04 
-1.5531007e+04 1.2547900e+04 -2.5976932e+03 
-4.1862113e+04 -1.0109497e+04 -2.5666013e+04 
-3.9125325e+04 -9.4727813e+03 -2.1851204e+04 
-3.5189893e+04 1.9939187e+04 -5.3444919e+03 
-3.5973144e+04 -4.0875410e+03 4.9686976e+03 
-3.4237473e+04 -3.5552088e+03 4.7880812e+03 
-4.0681029e+04 -9.4689239e+03 -1.9587037e+04 
-3.1066611e+04 2.4565858e+04 -5.2890123e+03 
-3.4832688e+04 -3.9064359e+03 4.8381501e+03 
-3.8454015e+04 -9.5923166e+03 -2.3844817e+04 
-3.0930567e+04 2.3818078e+04 -5.2369980e+03 
-3.4285568e+04 -3.7076709e+03 4.7862631e+03 
-3.8274036e+04 -9.4878152e+03 -2.3158573e+04 
-3.5563069e+04 -4.0628789e+03 4.9084323e+03 
-4.0619637e+04 -9.9935177e+03 -2.5599409e+04 
-3.9640962e+04 -9.3781468e+03 -2.0305034e+04 
-3.8509730e+04 -9.6552203e+03 -2.4431441e+04 
-3.2079069e+04 2.1365040e+04 -5.1814959e+03 
-1.8644696e+04 -2.1280355e+03 2.5127540e+03 
-1.7028694e+04 -1.5723958e+03 2.4141125e+03 
-3.3512997e+04 2.0281031e+04 -5.2256205e+03 
-3.3964587e+04 -3.2797703e+03 4.7603141e+03 
-3.6990062e+04 -4.2212924e+03 5.0943469e+03 
-3.0788666e+04 2.3073066e+04 -5.1835328e+03 
-3.8452924e+04 -9.6757798e+03 -2.4915126e+04 
-3.3883446e+04 -3.4597569e+03 4.7474383e+03 
-3.6514962e+04 -4.1943636e+03 5.0072248e+03 
-3.7955954e+04 -9.3459867e+03 -2.2387705e+04 
-3.4440540e+04 -3.8568910e+03 4.7925270e+03 
-3.5144754e+04 -4.0357364e+03 4.8558758e+03 
-3.9436472e+04 -9.8346054e+03 -2.5465264e+04 
-3.8572096e+04 -9.2794640e+03 -2.0962134e+04 
-3.3900028e+04 -3.6345076e+03 4.7431386e+03 
-3.0638004e+04 2.2328422e+04 -5.1278852e+03 
-3.6050760e+04 -4.1793115e+03 4.9388964e+03 
-2.1140473e+04 -5.0940888e+03 -1.2926274e+04 
-3.7654709e+04 5.0339886e+03 -1.1709580e+04 
-3.7069145e+04 -9.3359064e+03 -2.3564880e+04 
-4.1560245e+04 -9.9521834e+03 -2.5881147e+04 
-1.9029513e+04 -2.1902770e+03 2.5359915e+03 
-1.6849688e+04 -1.5071346e+03 2.3974570e+03 
-3.7206878e+04 -9.4212236e+03 -2.4183335e+04 
-3.9730900e+04 -9.2035716e+03 -1.8594002e+04 
-3.1878808e+04 2.0587837e+04 -5.1171354e+03 
-3.7493230e+04 -9.1728970e+03 -2.1554715e+04 
-3.4706740e+04 -4.0067343e+03 4.8073988e+03 
-3.3594567e+04 -3.1648700e+03 4.7199574e+03 
-3.8282404e+04 -9.6569088e+03 -2.5303362e+04 
-3.7721396e+04 -4.3382316e+03 5.1551696e+03 
-3.8820716e+04 -9.1428059e+03 -1.9360153e+04 
-3.4018134e+04 -3.8055301e+03 4.7471034e+03 
-4.0250687e+04 -9.9253193e+03 -2.5946440e+04 
-3.5580126e+04 -4.1696244e+03 4.8823904e+03 
-3.7194558e+04 -4.3042904e+03 5.0519828e+03 
-3.6808498e+04 -9.2138448e+03 -2.2859611e+04 
-3.3489240e+04 -3.3665215e+03 4.7047431e+03 
-3.7229089e+04 -9.4667127e+03 -2.4704882e+04 
-3.3251921e+04 1.9495205e+04 -5.1617549e+03 
-3.0475709e+04 2.1583818e+04 -5.0697904e+03 
-3.9070422e+04 -9.7796780e+03 -2.5796563e+04 
-3.7869467e+04 -9.0622642e+03 -2.0048660e+04 
-3.3477394e+04 -3.5627859e+03 4.6983265e+03 
-3.6681084e+04 -4.3003670e+03 4.9773692e+03 
-1.4682878e+04 1.2216151e+04 -2.5144603e+03 
-3.4240868e+04 -3.9767284e+03 4.7597501e+03 
-3.5088418e+04 -4.1619325e+03 4.8315721e+03 
-3.7135615e+04 -9.4714783e+03 -2.5127022e+04 
-2.9368944e+04 2.3920404e+04 -5.1214438e+03 
-3.6418761e+04 -9.0598874e+03 -2.2084723e+04 
-1.9468102e+04 -2.2584196e+03 2.5615741e+03 
-1.6648367e+04 -1.4449060e+03 2.3786449e+03 
-3.7978617e+04 -9.6063416e+03 -2.5616181e+04 
-3.6890957e+04 -8.9744542e+03 -2.0683543e+04 
-3.1658006e+04 1.9811162e+04 -5.0486474e+03 
-2.9233077e+04 2.3197999e+04 -5.0694352e+03 
-3.3561415e+04 -3.7549670e+03 4.7001984e+03 
-3.6145882e+04 -4.3146469e+03 4.9190207e+03 
-3.3181654e+04 -3.0557669e+03 4.6763901e+03 
-3.8597919e+04 -4.4590549e+03 5.2210152e+03 
-3.0299529e+04 2.0839784e+04 -5.0090260e+03 
-3.5903512e+04 -9.1817354e+03 -2.3915045e+04 
-3.3054533e+04 -3.2783413e+03 4.6592447e+03 
-3.8056495e+04 -4.4009151e+03 5.0992470e+03 
-3.6003140e+04 -9.2495291e+03 -2.4470323e+04 
-3.5689954e+04 -9.0777817e+03 -2.3272258e+04 
-2.9090664e+04 2.2479246e+04 -5.0159540e+03 
-3.4571230e+04 -4.1527347e+03 4.7816829e+03 
-3.5900823e+04 -8.8793196e+03 -2.1260702e+04 
-2.0613091e+04 -5.0034038e+03 -1.3053723e+04 
-3.5754318e+04 4.9962719e+03 -1.1532690e+04 
-3.3016501e+04 -3.4950456e+03 4.6508426e+03 
-3.6911039e+04 -9.4379987e+03 -2.5457239e+04 
-3.7466743e+04 -4.4350822e+03 5.0254655e+03 
-3.7885006e+04 -8.8798923e+03 -1.8400857e+04 
-3.5589953e+04 -4.3296991e+03 4.8666746e+03 
-3.5359431e+04 -8.9417112e+03 -2.2555286e+04 
-3.3743389e+04 -3.9466657e+03 4.7105883e+03 
-3.5988227e+04 -9.2781963e+03 -2.4929617e+04 
-3.9995636e+04 -9.8106367e+03 -2.6222860e+04 
-2.8940256e+04 2.1762383e+04 -4.9604130e+03 
-3.7042612e+04 -8.8270875e+03 -1.9134077e+04 
-3.8590951e+04 -9.7361550e+03 -2.6157585e+04 
-3.0108668e+04 2.0098252e+04 -4.9456473e+03 
-3.6848268e+04 -4.4824112e+03 4.9689930e+03 
-3.3068728e+04 -3.7071868e+03 4.6505643e+03 
-1.9941524e+04 -2.3064839e+03 2.5749859e+03 
-1.6425252e+04 -1.3868957e+03 2.3574961e+03 
-3.1422696e+04 1.9066904e+04 -4.9868870e+03 
-3.7507314e+04 -9.5288459e+03 -2.5865158e+04 
-3.9693886e+04 -4.5227870e+03 5.2792560e+03 
-3.2726632e+04 -2.9545174e+03 4.6290423e+03 
-3.6165772e+04 -8.7552960e+03 -1.9794631e+04 
-3.5847021e+04 -9.2674019e+03 -2.5293078e+04 
-3.4911599e+04 -8.7781845e+03 -2.1781207e+04 
-3.4025148e+04 -4.1415757e+03 4.7296038e+03 
-3.9113301e+04 -4.5332252e+03 5.1627019e+03 
-2.8780505e+04 2.1047413e+04 -4.9026752e+03 
-3.5011874e+04 -4.3382276e+03 4.8133395e+03 
-3.2579782e+04 -3.1970831e+03 4.6102553e+03 
-3.4776979e+04 -9.0264195e+03 -2.4214397e+04 
-3.4604357e+04 -8.9391139e+03 -2.3630868e+04 
-3.4322869e+04 -8.8196535e+03 -2.2970369e+04 
-3.5264696e+04 -8.6768740e+03 -2.0407347e+04 
-3.6215367e+04 -4.5121042e+03 4.9119390e+03 
-3.3212248e+04 -3.9179628e+03 4.6583750e+03 
-3.4838810e+04 -9.0777339e+03 -2.4709407e+04 
-3.6515094e+04 -9.3608562e+03 -2.5683299e+04 
-3.2517441e+04 -3.4330221e+03 4.5999207e+03 
-3.8411938e+04 -4.6438424e+03 5.1057479e+03 
-2.9903969e+04 1.9358548e+04 -4.8787246e+03 
-1.3869446e+04 1.1894719e+04 -2.4333930e+03 
-2.7741673e+04 2.3295708e+04 -4.9580633e+03 
-2.8610492e+04 2.0334841e+04 -4.8426234e+03 
-3.4780492e+04 -9.0913375e+03 -2.5111771e+04 
-3.7693447e+04 -4.7007455e+03 5.0419763e+03 
-3.3933245e+04 -8.6722004e+03 -2.2247138e+04 
-3.2539753e+04 -3.6637656e+03 4.5973562e+03 
-2.7608222e+04 2.2598756e+04 -4.9063049e+03 
-3.4352304e+04 -8.5916742e+03 -2.0967944e+04 
-3.4408132e+04 -4.3439073e+03 4.7573588e+03 
-3.5543846e+04 -9.2063892e+03 -2.5534844e+04 
-2.1122952e+04 -6.6564978e+03 -1.7202855e+03 
-1.6181125e+04 -1.3339699e+03 2.3338860e+03 
-3.3954612e+04 4.9583497e+03 -1.1356767e+04 
-3.5565410e+04 -4.5344537e+03 4.8534589e+03 
-3.3447898e+04 -4.1307089e+03 4.6741350e+03 
-3.9741758e+04 -7.1841251e+03 -1.0655591e+04 
-3.2230849e+04 -2.8625651e+03 4.5774878e+03 
-3.6128674e+04 -8.5666326e+03 -1.8203738e+04 
-2.7468197e+04 2.1906115e+04 -4.8531015e+03 
-3.5342609e+04 -8.5205294e+03 -1.8906627e+04 
-3.8699235e+04 -7.1368197e+03 -1.0489365e+04 
-3.2066159e+04 -3.1240026e+03 4.5572725e+03 
-3.3553952e+04 -8.7990388e+03 -2.3940107e+04 
-3.6968671e+04 -4.7401057e+03 4.9778624e+03 
-3.2646834e+04 -3.8923621e+03 4.6023731e+03 
-3.3688718e+04 -8.8708123e+03 -2.4466619e+04 
-3.3314363e+04 -8.6949410e+03 -2.3334115e+04 
-3.7802795e+04 -7.0880891e+03 -1.0359723e+04 
-3.4573269e+04 -9.0534796e+03 -2.5386913e+04 
-3.4528714e+04 -8.4563011e+03 -1.9540800e+04 
-2.7321106e+04 2.1216433e+04 -4.7979668e+03 
-3.1981169e+04 -3.3779133e+03 4.5450447e+03 
-3.3439352e+04 -8.5009303e+03 -2.1477007e+04 
-2.8430301e+04 1.9626214e+04 -4.7803687e+03 
-2.9691028e+04 1.8651440e+04 -4.8188611e+03 
-3.2973426e+04 -8.5625314e+03 -2.2661434e+04 
-3.3710669e+04 -8.9079625e+03 -2.4907099e+04 
-3.4893552e+04 -4.5532158e+03 4.7916932e+03 
-3.3775998e+04 -4.3489617e+03 4.6975490e+03 
-3.3694360e+04 -8.3860793e+03 -2.0131801e+04 
-3.6946871e+04 -7.0371277e+03 -1.0299099e+04 
-3.1975248e+04 -3.6259585e+03 4.5401240e+03 
-3.6232502e+04 -4.7712420e+03 4.9113963e+03 
-3.2838601e+04 -4.1218173e+03 4.6146044e+03 
-2.7166587e+04 2.0529894e+04 -4.7408459e+03 
-1.5917029e+04 -1.2867427e+03 2.3077635e+03 
-3.3597577e+04 -8.8951188e+03 -2.5221356e+04 
-3.2534835e+04 -8.4056964e+03 -2.1935934e+04 
-3.1696224e+04 -2.7809187e+03 4.5214928e+03 
-2.8240987e+04 1.8920162e+04 -4.7150003e+03 
-3.2047726e+04 -3.8711100e+03 4.5422125e+03 
-3.6100188e+04 -6.9866444e+03 -1.0258722e+04 
-3.1515435e+04 -3.0599407e+03 4.5000096e+03 
-3.2540315e+04 -8.6585661e+03 -2.4203480e+04 
-3.2337731e+04 -8.5687736e+03 -2.3650555e+04 
-3.2850186e+04 -8.3096221e+03 -2.0675348e+04 
-1.3089928e+04 1.1582859e+04 -2.3544311e+03 
-3.4196497e+04 -4.5721181e+03 4.7262623e+03 
-3.2038032e+04 -8.4503276e+03 -2.3027419e+04 
-3.2246257e+04 4.9199160e+03 -1.1180893e+04 
-2.7004566e+04 1.9846943e+04 -4.6816882e+03 
-2.6182987e+04 2.2690017e+04 -4.7987833e+03 
-3.2638507e+04 -8.7173070e+03 -2.4678502e+04 
-3.5478804e+04 -4.8017056e+03 4.8424288e+03 
-3.1409362e+04 -3.3305332e+03 4.4859544e+03 
-3.3114387e+04 -4.3555213e+03 4.6336037e+03 
-3.4455117e+04 -8.2626296e+03 -1.8001484e+04 
-2.6053505e+04 2.2018220e+04 -4.7474528e+03 
-3.3716555e+04 -8.2222217e+03 -1.8676300e+04 
-3.5248363e+04 -6.9347792e+03 -1.0221089e+04 
-3.2197733e+04 -4.1162717e+03 4.5508380e+03 
-3.2005334e+04 -8.2280734e+03 -2.1171774e+04 
-3.1646100e+04 -8.3070484e+03 -2.2346960e+04 
-3.1376807e+04 -3.5945785e+03 4.4786727e+03 
-3.2615382e+04 -8.7288998e+03 -2.5032064e+04 
-2.5917821e+04 2.1351210e+04 -4.6947330e+03 
-3.2956440e+04 -8.1645882e+03 -1.9285619e+04 
-2.8047767e+04 1.8246621e+04 -4.6568618e+03 
-2.6835650e+04 1.9168823e+04 -4.6206355e+03 
-1.5634261e+04 -1.2456192e+03 2.2791529e+03 
-2.5776048e+04 2.0687890e+04 -4.6402079e+03 
-3.2179920e+04 -8.1015913e+03 -1.9855583e+04 
-3.1125197e+04 -2.7102412e+03 4.4610100e+03 
-3.4704226e+04 -4.8337549e+03 4.7703732e+03 
-3.3473129e+04 -4.5927440e+03 4.6569310e+03 
-3.1416481e+04 -3.8550632e+03 4.4778215e+03 
-3.1396227e+04 -8.4421786e+03 -2.3922846e+04 
-3.1131806e+04 -8.3367353e+03 -2.3348525e+04 
-3.1565528e+04 -8.5201571e+03 -2.4427786e+04 
-3.0929924e+04 -3.0054254e+03 4.4383860e+03 
-3.2423792e+04 -4.3647411e+03 4.5654764e+03 
-3.4385194e+04 -6.8806899e+03 -1.0177372e+04 
-3.1167780e+04 -8.1424058e+03 -2.1622058e+04 
-2.5628449e+04 2.0028531e+04 -4.5838744e+03 
-3.0804283e+04 -3.2913543e+03 4.4225918e+03 
-3.1395747e+04 -8.0328939e+03 -2.0382009e+04 
-3.0779189e+04 -8.2060583e+03 -2.2712783e+04 
-3.1626790e+04 -8.5544621e+03 -2.4818145e+04 
-3.1526881e+04 -4.1148452e+03 4.4828802e+03 
-2.6660943e+04 1.8493661e+04 -4.5567930e+03 
-3.0621422e+04 4.8807278e+03 -1.1004429e+04 
-3.0746693e+04 -3.5700923e+03 4.4130138e+03 
-3.2858340e+04 -7.9670111e+03 -1.7793362e+04 
-3.3907828e+04 -4.8682177e+03 4.6950270e+03 
-3.2160417e+04 -7.9314882e+03 -1.8442080e+04 
-3.3508155e+04 -6.8236068e+03 -1.0124694e+04 
-3.2724090e+04 -4.6158549e+03 4.5837579e+03 
-3.0344351e+04 -8.0536177e+03 -2.2027958e+04 
-2.5475466e+04 1.9373502e+04 -4.5257224e+03 
-1.2343305e+04 1.1279816e+04 -2.2774997e+03 
-3.0611638e+04 -7.9595502e+03 -2.0865131e+04 
-2.4690653e+04 2.2101653e+04 -4.6434786e+03 
-3.1446708e+04 -7.8796499e+03 -1.9027990e+04 
-1.5334330e+04 -1.2108177e+03 2.2481411e+03 
-3.0755401e+04 -3.8446526e+03 4.4092977e+03 
-3.0259037e+04 -8.2227606e+03 -2.3627606e+04 
-3.0493489e+04 -8.3176192e+03 -2.4157769e+04 
-2.4566191e+04 2.1454478e+04 -4.5927049e+03 
-3.0520652e+04 -2.6508924e+03 4.3961481e+03 
-3.1705907e+04 -4.3772117e+03 4.4933268e+03 
-3.0312387e+04 -2.9607122e+03 4.3724861e+03 
-2.9939274e+04 -8.1038132e+03 -2.3036373e+04 
-3.0632588e+04 -8.3724711e+03 -2.4581288e+04 
-2.4436122e+04 2.0812420e+04 -4.5406113e+03 
-2.6485359e+04 1.7850748e+04 -4.5002381e+03 
-3.0720623e+04 -7.8230603e+03 -1.9577709e+04 
-2.5318000e+04 1.8723806e+04 -4.4659089e+03 
-3.0168667e+04 -3.2605758e+03 4.3550605e+03 
-2.9834573e+04 -7.8824549e+03 -2.1305682e+04 
-3.0828433e+04 -4.1178858e+03 4.4109233e+03 
-2.9540940e+04 -7.9627118e+03 -2.2391724e+04 
-3.2616758e+04 -6.7632114e+03 -1.0062426e+04 
-3.3090428e+04 -4.9049234e+03 4.6163280e+03 
-2.4300926e+04 2.0174534e+04 -4.4868322e+03 
-3.0087669e+04 -3.5526584e+03 4.3432974e+03 
-2.9989369e+04 -7.7612936e+03 -2.0087213e+04 
-3.1951244e+04 -4.6415569e+03 4.5069102e+03 
-2.4161245e+04 1.9541117e+04 -4.4313950e+03 
-2.9424277e+04 -8.1108186e+03 -2.3871364e+04 
-2.5157120e+04 1.8077220e+04 -4.4035557e+03 
-2.9073492e+04 4.8405940e+03 -1.0826939e+04 
-3.0963251e+04 -4.3930631e+03 4.4174049e+03 
-2.9070760e+04 -7.8025357e+03 -2.1705108e+04 
-3.1333057e+04 -7.6791166e+03 -1.7578943e+04 
-3.0067319e+04 -3.8399891e+03 4.3368546e+03 
-2.9131175e+04 -8.0012755e+03 -2.3320313e+04 
-2.9634049e+04 -8.1839571e+03 -2.4324052e+04 
-1.5018906e+04 -1.1823918e+03 2.2148622e+03 
-2.9259428e+04 -7.6953140e+03 -2.0556728e+04 
-2.9885816e+04 -2.6029553e+03 4.3271306e+03 
-3.0670377e+04 -7.6478214e+03 -1.8203299e+04 
-2.8762793e+04 -7.8707126e+03 -2.2715972e+04 
-3.1711772e+04 -6.6994076e+03 -9.9910411e+03 
-2.9665935e+04 -2.9258183e+03 4.3025182e+03 
-2.4017824e+04 1.8912462e+04 -4.3743138e+03 
-2.9997088e+04 -7.6011109e+03 -1.8767150e+04 
-3.2253958e+04 -4.9433739e+03 4.5343708e+03 
-1.1628434e+04 1.0984869e+04 -2.2025183e+03 
-2.3262237e+04 2.1529070e+04 -4.4920077e+03 
-3.0105319e+04 -4.1254025e+03 4.3352367e+03 
-2.9505601e+04 -3.2381607e+03 4.2835776e+03 
-3.1157224e+04 -4.6696287e+03 4.4266362e+03 
-2.3143481e+04 2.0905848e+04 -4.4418835e+03 
-2.8536852e+04 -7.6259405e+03 -2.0986859e+04 
-2.4997507e+04 1.7462500e+04 -4.3484669e+03 
-2.9315251e+04 -7.5502337e+03 -1.9297467e+04 
-2.8325745e+04 -7.7207293e+03 -2.2065349e+04 
-2.9402851e+04 -3.5421949e+03 4.2697700e+03 
-2.3019821e+04 2.0287958e+04 -4.3905143e+03 
-2.3871712e+04 1.8289384e+04 -4.3157509e+03 
-2.8359857e+04 -7.9007890e+03 -2.3571204e+04 
-2.8632823e+04 -7.9900389e+03 -2.4049147e+04 
-2.8630809e+04 -7.4946853e+03 -1.9790415e+04 
-3.0198845e+04 -4.4121378e+03 4.3380124e+03 
-2.2891945e+04 1.9674537e+04 -4.3375707e+03 
-2.9355413e+04 -3.8409339e+03 4.2607749e+03 
-2.8014884e+04 -7.7785335e+03 -2.3003073e+04 
-3.0794800e+04 -6.6322626e+03 -9.9113814e+03 
-2.7827182e+04 -7.5540323e+03 -2.1378857e+04 
-1.4689768e+04 -1.1602500e+03 2.1794815e+03 
-3.1401027e+04 -4.9829169e+03 4.4493369e+03 
-2.9224150e+04 -2.5662641e+03 4.2542578e+03 
-2.7596838e+04 4.7993658e+03 -1.0648132e+04 
-2.7604611e+04 -7.6379996e+03 -2.2388759e+04 
-2.2760713e+04 1.9065877e+04 -4.2830972e+03 
-2.9874599e+04 -7.3984412e+03 -1.7358013e+04 
-2.8993922e+04 -2.9005484e+03 4.2287720e+03 
-2.7949189e+04 -7.4353424e+03 -2.0246270e+04 
-2.3723904e+04 1.7669414e+04 -4.2548466e+03 
-2.9360786e+04 -4.1371742e+03 4.2561338e+03 
-2.9242866e+04 -7.3708366e+03 -1.7959541e+04 
-3.0345103e+04 -4.6996536e+03 4.3432204e+03 
-2.8818404e+04 -3.2238762e+03 4.2084358e+03 
-2.8605097e+04 -7.3286916e+03 -1.8502581e+04 
-2.2627030e+04 1.8462193e+04 -4.2271210e+03 
-2.7135515e+04 -7.4804629e+03 -2.1734449e+04 
-2.8695576e+04 -3.5384299e+03 4.1927374e+03 
-2.7275593e+04 -7.3729500e+03 -2.0665582e+04 
-2.7630844e+04 -7.7917805e+03 -2.3759052e+04 
-2.9867992e+04 -6.5619258e+03 -9.8243707e+03 
-2.7962303e+04 -7.2829298e+03 -1.9014348e+04 
-2.7302238e+04 -7.6884305e+03 -2.3259494e+04 
-2.9415988e+04 -4.4340919e+03 4.2554732e+03 
-1.0944126e+04 1.0697352e+04 -2.1294071e+03 
-2.3578906e+04 1.7080844e+04 -4.2011252e+03 
-2.1895246e+04 2.0970876e+04 -4.3442258e+03 
-2.1782619e+04 2.0370869e+04 -4.2948173e+03 
-2.6912220e+04 -7.5552068e+03 -2.2677536e+04 
-3.0534616e+04 -5.0228841e+03 4.3614682e+03 
-2.8623055e+04 -3.8471698e+03 4.1813812e+03 
-2.7319399e+04 -7.2329796e+03 -1.9491206e+04 
-2.2492007e+04 1.7864154e+04 -4.1698041e+03 
-2.1665827e+04 1.9776316e+04 -4.2442392e+03 
-1.4348752e+04 -1.1441777e+03 2.1421825e+03 
-2.6614906e+04 -7.3083001e+03 -2.1049487e+04 
-2.8539245e+04 -2.5404353e+03 4.1778743e+03 
-2.8299838e+04 -2.8845232e+03 4.1515857e+03 
-2.9518171e+04 -4.7311260e+03 4.2569673e+03 
-2.6466612e+04 -7.4061353e+03 -2.2055796e+04 
-2.8598241e+04 -4.1528238e+03 4.1739481e+03 
-2.1545661e+04 1.9186398e+04 -4.1921887e+03 
-2.6680912e+04 -7.1796348e+03 -1.9933509e+04 
-2.8110527e+04 -3.2173277e+03 4.1299712e+03 
-2.6186629e+04 4.7569278e+03 -1.0467828e+04 
-2.8478838e+04 -7.1245964e+03 -1.7130504e+04 
-2.2356550e+04 1.7269128e+04 -4.1103073e+03 
-2.8933846e+04 -6.4885883e+03 -9.7308634e+03 
-2.6630242e+04 -7.5901414e+03 -2.3455894e+04 
-2.7874584e+04 -7.1002386e+03 -1.7710570e+04 
-2.1423090e+04 1.8601376e+04 -4.1387182e+03 
-2.7969287e+04 -3.5409468e+03 4.1125384e+03 
-2.6253423e+04 -7.4745114e+03 -2.2937996e+04 
-2.8618089e+04 -4.4584744e+03 4.1701190e+03 
-2.5971717e+04 -7.2422041e+03 -2.1399570e+04 
-2.7268282e+04 -7.0621813e+03 -1.8233951e+04 
-2.6051287e+04 -7.1235687e+03 -2.0341803e+04 
-2.9657869e+04 -5.0626413e+03 4.2710404e+03 
-2.7873697e+04 -3.8582531e+03 4.0990155e+03 
-2.6660126e+04 -7.0210172e+03 -1.8727999e+04 
-2.5825057e+04 -7.3318558e+03 -2.2344957e+04 
-2.1299095e+04 1.8021396e+04 -4.0838612e+03 
-2.2225042e+04 1.6704973e+04 -4.0578689e+03 
-1.0289193e+04 1.0416666e+04 -2.0580903e+03 
-1.3997704e+04 -1.1338602e+03 2.1031555e+03 
-2.8679774e+04 -4.7635088e+03 4.1681882e+03 
-2.0587216e+04 2.0425847e+04 -4.1999927e+03 
-2.6054192e+04 -6.9761202e+03 -1.9189281e+04 
-2.7834726e+04 -2.5249034e+03 4.0983442e+03 
-2.5434780e+04 -7.0655082e+03 -2.0717162e+04 
-2.0480958e+04 1.9848288e+04 -4.1513471e+03 
-2.7821128e+04 -4.1718770e+03 4.0890201e+03 
-2.7587220e+04 -2.8772099e+03 4.0713197e+03 
-2.5350376e+04 -7.1755045e+03 -2.1717848e+04 
-2.1174796e+04 1.7447013e+04 -4.0277758e+03 
-2.7995043e+04 -6.4124558e+03 -9.6315922e+03 
-2.0371260e+04 1.9276235e+04 -4.1016047e+03 
-2.5633252e+04 -7.3859635e+03 -2.3141415e+04 
-2.7385458e+04 -3.2179909e+03 4.0485395e+03 
-2.5454247e+04 -6.9282065e+03 -1.9618244e+04 
-2.4838686e+04 4.7131922e+03 -1.0285923e+04 
-2.0258952e+04 1.8708885e+04 -4.0504827e+03 
-2.5215379e+04 -7.2596838e+03 -2.2608078e+04 
-2.7808548e+04 -4.4847795e+03 4.0822803e+03 
-2.7142110e+04 -6.8572807e+03 -1.6896457e+04 
-2.7227444e+04 -3.5492207e+03 4.0295250e+03 
-2.8773953e+04 -5.1016150e+03 4.1783476e+03 
-2.6562496e+04 -6.8357995e+03 -1.7456282e+04 
-2.1051009e+04 1.6875485e+04 -3.9696450e+03 
-2.4835459e+04 -7.0062030e+03 -2.1061076e+04 
-2.0145046e+04 1.8146458e+04 -3.9980358e+03 
-2.5984276e+04 -6.8014199e+03 -1.7961059e+04 
-2.4864065e+04 -6.8778822e+03 -2.0015459e+04 
-2.7110773e+04 -3.8736550e+03 4.0140243e+03 
-2.4755094e+04 -7.1089523e+03 -2.2006262e+04 
-2.7833210e+04 -4.7962700e+03 4.0771950e+03 
-2.5407007e+04 -6.7644009e+03 -1.8438186e+04 
-1.3638443e+04 -1.1289046e+03 2.0625911e+03 
-2.0030544e+04 1.7589038e+04 -3.9442990e+03 
-2.7054332e+04 -6.3337332e+03 -9.5271557e+03 
-2.7114180e+04 -2.5189579e+03 4.0160334e+03 
-2.7032842e+04 -4.1938024e+03 4.0016876e+03 
-2.0932033e+04 1.6334253e+04 -3.9184171e+03 
-2.6859574e+04 -2.8779528e+03 3.9883382e+03 
-2.4257224e+04 -6.9464356e+03 -2.1375452e+04 
-2.4642135e+04 -7.1799785e+03 -2.2817011e+04 
-2.4287320e+04 -6.8258102e+03 -2.0381970e+04 
-2.4834077e+04 -6.7240738e+03 -1.8884424e+04 
-9.6624785e+03 1.0142283e+04 -1.9884979e+03 
-2.6646644e+04 -3.2252416e+03 3.9644996e+03 
-1.9335766e+04 1.9892912e+04 -4.0591775e+03 
-2.4189998e+04 -7.0445048e+03 -2.2270778e+04 
-1.9916548e+04 1.7037086e+04 -3.8894249e+03 
-1.9235986e+04 1.9337035e+04 -4.0113278e+03 
-2.7885965e+04 -5.1393000e+03 4.0836907e+03 
-2.6990683e+04 -4.5124805e+03 3.9922813e+03 
-2.6473450e+04 -3.5626490e+03 3.9440484e+03 
-2.4268615e+04 -6.6810844e+03 -1.9300320e+04 
-1.9133451e+04 1.8786663e+04 -3.9624501e+03 
-2.3549369e+04 4.6680936e+03 -1.0102375e+04 
-2.5861157e+04 -6.5962590e+03 -1.6655988e+04 
-2.3727570e+04 -6.7726804e+03 -2.0719204e+04 
-1.9028989e+04 1.8240990e+04 -3.9122772e+03 
-2.6337637e+04 -3.8927924e+03 3.9267496e+03 
-2.3703864e+04 -6.8869013e+03 -2.1662126e+04 
-2.5303825e+04 -6.5773413e+03 -1.7196664e+04 
-1.9803787e+04 1.6487794e+04 -3.8326198e+03 
-2.3713806e+04 -6.6359751e+03 -1.9686484e+04 
-2.6981663e+04 -4.8289025e+03 3.9842948e+03 
-2.4750831e+04 -6.5462839e+03 -1.7683803e+04 
-2.6114437e+04 -6.2526170e+03 -9.4180293e+03 
-1.8923614e+04 1.7700191e+04 -3.8608619e+03 
-2.6236667e+04 -4.2180401e+03 3.9122799e+03 
-1.3272732e+04 -1.1288608e+03 2.0206744e+03 
-2.4201233e+04 -6.5130114e+03 -1.8144760e+04 
-2.6381085e+04 -2.5217790e+03 3.9312985e+03 
-2.3659117e+04 -6.9728225e+03 -2.2483786e+04 
-2.6120307e+04 -2.8860044e+03 3.9029968e+03 
-2.3188258e+04 -6.7192157e+03 -2.1028978e+04 
-2.3172793e+04 -6.5893482e+03 -2.0043950e+04 
-1.9696509e+04 1.5968187e+04 -3.7825385e+03 
-1.8818322e+04 1.7164292e+04 -3.8082384e+03 
-2.5897433e+04 -3.2383834e+03 3.8782016e+03 
-2.6996872e+04 -5.1752569e+03 3.9873699e+03 
-2.3657857e+04 -6.4768237e+03 -1.8576484e+04 
-2.3179070e+04 -6.8294556e+03 -2.1926883e+04 
-2.6167670e+04 -4.5410519e+03 3.9004366e+03 
-2.5710594e+04 -3.5805773e+03 3.8564506e+03 
-9.0628711e+03 9.8737364e+03 -1.9205667e+03 
-1.8138625e+04 1.9371149e+04 -3.9216600e+03 
-2.3123291e+04 -6.4383023e+03 -1.8979617e+04 
-1.8714177e+04 1.6633681e+04 -3.7545520e+03 
-1.8045342e+04 1.8836207e+04 -3.8746293e+03 
-2.2648656e+04 -6.5418351e+03 -2.0374101e+04 
-2.5557508e+04 -3.9150512e+03 3.8375218e+03 
-2.2672737e+04 -6.6660564e+03 -2.1313038e+04 
-2.2315479e+04 4.6215849e+03 -9.9171844e+03 
-2.6128154e+04 -4.8609329e+03 3.8897870e+03 
-2.5177996e+04 -6.1692919e+03 -9.3045844e+03 
-2.4633067e+04 -6.3413462e+03 -1.6409262e+04 
-1.7949931e+04 1.8306725e+04 -3.8266348e+03 
-2.4096030e+04 -6.3247241e+03 -1.6931775e+04 
-2.2600211e+04 -6.3979310e+03 -1.9354814e+04 
-1.7853199e+04 1.7781887e+04 -3.7774212e+03 
-2.5435730e+04 -4.2440217e+03 3.8211141e+03 
-2.3565830e+04 -6.2966778e+03 -1.7402155e+04 
-1.8611837e+04 1.6105511e+04 -3.6990336e+03 
-2.2686338e+04 -6.7650517e+03 -2.2142609e+04 
-1.2902252e+04 -1.1332402e+03 1.9775822e+03 
-2.5638770e+04 -2.5324721e+03 3.8444794e+03 
-2.2144393e+04 -6.4941011e+03 -2.0678684e+04 
-2.3041131e+04 -6.2667986e+03 -1.7847644e+04 
-2.5372684e+04 -2.9005539e+03 3.8156357e+03 
-2.6109470e+04 -5.2091069e+03 3.8896787e+03 
-1.7756138e+04 1.7261820e+04 -3.7270375e+03 
-2.5141027e+04 -3.2566723e+03 3.7899805e+03 
-2.2091285e+04 -6.3562549e+03 -1.9703112e+04 
-2.2184263e+04 -6.6149580e+03 -2.1576985e+04 
-2.5342512e+04 -4.5699827e+03 3.8070485e+03 
-2.2524298e+04 -6.2343641e+03 -1.8265366e+04 
-1.8515513e+04 1.5606388e+04 -3.6500426e+03 
-2.4942008e+04 -3.6023205e+03 3.7670581e+03 
-1.7659717e+04 1.6746498e+04 -3.6755150e+03 
-2.4247510e+04 -6.0839299e+03 -9.1871109e+03 
-2.2017464e+04 -6.1998983e+03 -1.8656050e+04 
-2.4773437e+04 -3.9398046e+03 3.7466563e+03 
-2.5275514e+04 -4.8919253e+03 3.7939602e+03 
-2.1662930e+04 -6.4467321e+03 -2.0959357e+04 
-2.1599147e+04 -6.3138495e+03 -2.0025862e+04 
-8.4893150e+03 9.6106245e+03 -1.8542398e+03 
-1.7564964e+04 1.6236249e+04 -3.6229911e+03 
-1.6993643e+04 1.8859764e+04 -3.7873319e+03 
-1.6906815e+04 1.8345039e+04 -3.7411361e+03 
-2.1134189e+04 4.5736337e+03 -9.7303841e+03 
-2.3455232e+04 -6.0923959e+03 -1.6156481e+04 
-2.1725814e+04 -6.5571573e+03 -2.1794174e+04 
-2.4632976e+04 -4.2711836e+03 3.7284921e+03 
-2.1522862e+04 -6.1638314e+03 -1.9020399e+04 
-2.2936792e+04 -6.0778371e+03 -1.6661719e+04 
-1.6818422e+04 1.7835694e+04 -3.6940354e+03 
-1.2528588e+04 -1.1415324e+03 1.9334814e+03 
-2.2427295e+04 -6.0525270e+03 -1.7116140e+04 
-2.5226362e+04 -5.2405228e+03 3.7909005e+03 
-2.4890378e+04 -2.5500978e+03 3.7558964e+03 
-1.7472470e+04 1.5728209e+04 -3.5687223e+03 
-2.4619792e+04 -2.9207527e+03 3.7265751e+03 
-1.6729237e+04 1.7330899e+04 -3.6457847e+03 
-2.1126379e+04 -6.2713241e+03 -2.0324749e+04 
-2.1207105e+04 -6.4013871e+03 -2.1221545e+04 
-2.4518012e+04 -4.5987834e+03 3.7124051e+03 
-2.1925095e+04 -6.0257257e+03 -1.7546812e+04 
-2.4380448e+04 -3.2793380e+03 3.7001524e+03 
-2.1042738e+04 -6.1266552e+03 -1.9359458e+04 
-1.6640220e+04 1.6830734e+04 -3.5964274e+03 
-2.4170641e+04 -3.6271809e+03 3.6761791e+03 
-2.1432172e+04 -5.9966969e+03 -1.7951019e+04 
-2.3325319e+04 -5.9966906e+03 -9.0658365e+03 
-1.7386430e+04 1.5248553e+04 -3.5207712e+03 
-2.4426368e+04 -4.9214811e+03 3.6970907e+03 
-1.6552307e+04 1.6335127e+04 -3.5459907e+03 
-2.3988280e+04 -3.9664266e+03 3.6544510e+03 
-2.0675507e+04 -6.2292127e+03 -2.0601353e+04 
-2.0579327e+04 -6.0888921e+03 -1.9674551e+04 
-2.0950277e+04 -5.9659129e+03 -1.8329569e+04 
-2.0779414e+04 -6.3495780e+03 -2.1439043e+04 
-2.3831144e+04 -4.2989767e+03 3.6346998e+03 
-1.6466485e+04 1.5844354e+04 -3.4946039e+03 
-2.0002975e+04 4.5242204e+03 -9.5420317e+03 
-7.9408113e+03 9.3525982e+03 -1.7894665e+03 
-2.4349942e+04 -5.2692218e+03 3.6913052e+03 
-2.2325299e+04 -5.8492914e+03 -1.5897870e+04 
-1.5898794e+04 1.8358079e+04 -3.6560959e+03 
-2.0481261e+04 -5.9337555e+03 -1.8683208e+04 
-1.5818338e+04 1.7862884e+04 -3.6107457e+03 
-2.1823992e+04 -5.8365918e+03 -1.6386637e+04 
-1.2153220e+04 -1.1532184e+03 1.8885285e+03 
-2.4138844e+04 -2.5736977e+03 3.6658486e+03 
-2.3864515e+04 -2.9457375e+03 3.6361142e+03 
-2.0134826e+04 -6.0510982e+03 -1.9967311e+04 
-1.5736811e+04 1.7372964e+04 -3.5645446e+03 
-2.0248979e+04 -6.1890812e+03 -2.0860927e+04 
-2.1333389e+04 -5.8137731e+03 -1.6825830e+04 
-2.3696763e+04 -4.6269908e+03 3.6167795e+03 
-2.3618518e+04 -3.3056029e+03 3.6090128e+03 
-1.6383295e+04 1.5355549e+04 -3.4415490e+03 
-1.5654951e+04 1.6887471e+04 -3.5172559e+03 
-2.0851595e+04 -5.7897667e+03 -1.7242284e+04 
-2.0026999e+04 -5.9006670e+03 -1.9012991e+04 
-2.2413577e+04 -5.9077220e+03 -8.9409456e+03 
-2.3399237e+04 -3.6544626e+03 3.5841022e+03 
-2.0380276e+04 -5.7638294e+03 -1.7633434e+04 
-1.5573681e+04 1.6406438e+04 -3.4689164e+03 
-2.3583125e+04 -4.9492364e+03 3.5994404e+03 
-2.3204685e+04 -3.9943032e+03 3.5611851e+03 
-1.9711391e+04 -6.0137580e+03 -2.0239243e+04 
-1.6306919e+04 1.4894447e+04 -3.3945928e+03 
-1.9589366e+04 -5.8671203e+03 -1.9320222e+04 
-1.9848844e+04 -6.1427089e+03 -2.1077688e+04 
-1.5493901e+04 1.5929755e+04 -3.4195487e+03 
-1.9920856e+04 -5.7363877e+03 -1.8000153e+04 
-2.3032761e+04 -4.3268724e+03 3.5400054e+03 
-2.3482395e+04 -5.2949574e+03 3.5911481e+03 
-1.5416562e+04 1.5457650e+04 -3.3692737e+03 
-1.1777516e+04 -1.1677824e+03 1.8428692e+03 
-1.9474857e+04 -5.7077795e+03 -1.8343230e+04 
-1.8919574e+04 4.4733354e+03 -9.3522026e+03 
-2.1241143e+04 -5.6119389e+03 -1.5633671e+04 
-2.3386883e+04 -2.6023155e+03 3.5746138e+03 
-1.9311111e+04 -5.9783485e+03 -2.0495436e+04 
-7.4164175e+03 9.0993574e+03 -1.7262019e+03 
-2.3109523e+04 -2.9746480e+03 3.5445310e+03 
-2.2881141e+04 -4.6541698e+03 3.5204290e+03 
-1.9170215e+04 -5.8336213e+03 -1.9606483e+04 
-2.0755689e+04 -5.6009174e+03 -1.6106696e+04 
-1.4852172e+04 1.7865513e+04 -3.5278654e+03 
-1.4777977e+04 1.7389200e+04 -3.4833680e+03 
-2.0282401e+04 -5.5803701e+03 -1.6531324e+04 
-2.2857846e+04 -3.3346974e+03 3.5168364e+03 
-2.1514246e+04 -5.8171618e+03 -8.8125925e+03 
-1.4703141e+04 1.6918032e+04 -3.4380687e+03 
-1.9043831e+04 -5.6784018e+03 -1.8663727e+04 
-1.5342158e+04 1.4987269e+04 -3.3173991e+03 
-2.2630326e+04 -3.6834834e+03 3.4910964e+03 
-1.9819188e+04 -5.5589033e+03 -1.6934113e+04 
-2.2747979e+04 -4.9748599e+03 3.5012562e+03 
-1.4628363e+04 1.6451146e+04 -3.3917382e+03 
-2.2425081e+04 -4.0228401e+03 3.4671193e+03 
-1.9367447e+04 -5.5357731e+03 -1.7312632e+04 
-1.8771364e+04 -5.8006078e+03 -1.9873213e+04 
-1.8935638e+04 -5.9369101e+03 -2.0710518e+04 
-1.4554529e+04 1.5988532e+04 -3.3444061e+03 
-1.8629336e+04 -5.6486815e+03 -1.8962930e+04 
-1.5274871e+04 1.4543891e+04 -3.2713974e+03 
-2.2240135e+04 -4.3543678e+03 3.4446601e+03 
-2.2625692e+04 -5.3175143e+03 3.4906682e+03 
-1.8928327e+04 -5.5113645e+03 -1.7667813e+04 
-1.4482507e+04 1.5530042e+04 -3.2960900e+03 
-1.1402728e+04 -1.1847201e+03 1.7966394e+03 
-2.2636987e+04 -2.6350147e+03 3.4824499e+03 
-1.8394582e+04 -5.7694728e+03 -2.0125343e+04 
-2.2073305e+04 -4.6799141e+03 3.4235942e+03 
-1.8503070e+04 -5.4859766e+03 -1.8000479e+04 
-1.7881937e+04 4.4209774e+03 -9.1609856e+03 
-2.2357264e+04 -3.0066428e+03 3.4520828e+03 
-1.8232914e+04 -5.6190777e+03 -1.9242373e+04 
-2.0200827e+04 -5.3802626e+03 -1.5364137e+04 
-1.4413213e+04 1.5075863e+04 -3.2469024e+03 
-2.0629093e+04 -5.7251386e+03 -8.6809131e+03 
-1.9730103e+04 -5.3707567e+03 -1.5822082e+04 
-2.2100820e+04 -3.3658717e+03 3.4238778e+03 
-6.9152450e+03 8.8506436e+03 -1.6644063e+03 
-1.3851983e+04 1.7381572e+04 -3.4025630e+03 
-1.9272747e+04 -5.3522818e+03 -1.6232751e+04 
-2.1866219e+04 -3.7135841e+03 3.3974109e+03 
-1.3783925e+04 1.6923526e+04 -3.3589231e+03 
-2.1922906e+04 -4.9980500e+03 3.4027693e+03 
-1.8092943e+04 -5.4599649e+03 -1.8311699e+04 
-1.8826510e+04 -5.3331237e+03 -1.6622383e+04 
-1.3715587e+04 1.6470478e+04 -3.3145257e+03 
-1.4347107e+04 1.4623163e+04 -3.1961763e+03 
-2.1651683e+04 -4.0514693e+03 3.3724960e+03 
-1.7856082e+04 -5.5899849e+03 -1.9503435e+04 
-1.8041159e+04 -5.7325114e+03 -2.0337901e+04 
-1.3647637e+04 1.6021550e+04 -3.2691478e+03 
-1.8392565e+04 -5.3125419e+03 -1.6988667e+04 
-2.1781598e+04 -5.3367022e+03 3.3900878e+03 
-1.7699227e+04 -5.4337141e+03 -1.8602740e+04 
-2.1455357e+04 -4.3809883e+03 3.3488976e+03 
-1.3580929e+04 1.5576688e+04 -3.2228117e+03 
-1.4288369e+04 1.4196751e+04 -3.1510924e+03 
-1.7971828e+04 -5.2908851e+03 -1.7332588e+04 
-1.7500321e+04 -5.5627162e+03 -1.9750896e+04 
-1.3516296e+04 1.5135714e+04 -3.1755299e+03 
-1.1029996e+04 -1.2035454e+03 1.7499650e+03 
-2.1275197e+04 -4.7038468e+03 3.3264996e+03 
-2.1891422e+04 -2.6708915e+03 3.3895958e+03 
-1.9759691e+04 -5.6317725e+03 -8.5460327e+03 
-1.7565298e+04 -5.2684172e+03 -1.7654994e+04 
-2.1609964e+04 -3.0409107e+03 3.3590079e+03 
-1.7323188e+04 -5.4076400e+03 -1.8875094e+04 
-1.6888198e+04 4.3671525e+03 -8.9684796e+03 
-2.1349609e+04 -3.3984060e+03 3.3303726e+03 
-1.9202583e+04 -5.1542004e+03 -1.5089526e+04 
-1.8745592e+04 -5.1460632e+03 -1.5532998e+04 
-1.3454627e+04 1.4698778e+04 -3.1274062e+03 
-2.1109675e+04 -5.0185328e+03 3.3041948e+03 
-2.1109008e+04 -3.7441358e+03 3.3032770e+03 
-1.8302950e+04 -5.1294799e+03 -1.5930260e+04 
-1.7173996e+04 -5.2454562e+03 -1.7956961e+04 
-6.4364559e+03 8.6062345e+03 -1.6040444e+03 
-1.2896540e+04 1.6905832e+04 -3.2801202e+03 
-1.2834481e+04 1.6465477e+04 -3.2373407e+03 
-1.7166600e+04 -5.5298171e+03 -1.9960183e+04 
-1.7872279e+04 -5.1124205e+03 -1.6307200e+04 
-1.6966076e+04 -5.3820968e+03 -1.9130080e+04 
-2.0886485e+04 -4.0796533e+03 3.2775397e+03 
-1.3396353e+04 1.4263071e+04 -3.0777988e+03 
-1.2772445e+04 1.6029953e+04 -3.1938436e+03 
-2.0951677e+04 -5.3523533e+03 3.2896129e+03 
-1.7454562e+04 -5.0941519e+03 -1.6661620e+04 
-1.2711069e+04 1.5598373e+04 -3.1494120e+03 
-2.0680303e+04 -4.4062900e+03 3.2529349e+03 
-1.6798958e+04 -5.2223484e+03 -1.8239734e+04 
-1.7050515e+04 -5.0749902e+03 -1.6994542e+04 
-1.3345656e+04 1.3852928e+04 -3.0336000e+03 
-1.2651177e+04 1.5170643e+04 -3.1040603e+03 
-1.6629116e+04 -5.3583223e+03 -1.9372339e+04 
-2.0488553e+04 -4.7256200e+03 3.2293534e+03 
-1.8907424e+04 -5.5371765e+03 -8.4080719e+03 
-1.0660350e+04 -1.2237958e+03 1.7029634e+03 
-2.1152234e+04 -2.7090843e+03 3.2962729e+03 
-2.0869631e+04 -3.0766793e+03 3.2655267e+03 
-1.6441211e+04 -5.1994696e+03 -1.8504768e+04 
-1.2593577e+04 1.4746554e+04 -3.0577958e+03 
-1.6660930e+04 -5.0551681e+03 -1.7306839e+04 
-2.0606166e+04 -3.4316173e+03 3.2365387e+03 
-1.5936647e+04 4.3118727e+03 -8.7747915e+03 
-1.8244783e+04 -4.9337010e+03 -1.4810103e+04 
-2.0309852e+04 -5.0360594e+03 3.2057319e+03 
-2.0360572e+04 -3.7745450e+03 3.2089081e+03 
-1.7800639e+04 -4.9267989e+03 -1.5239655e+04 
-1.2539130e+04 1.4326225e+04 -3.0107138e+03 
-1.7371634e+04 -4.9119420e+03 -1.5624018e+04 
-1.6286615e+04 -5.0349699e+03 -1.7599587e+04 
-1.6312994e+04 -5.3291086e+03 -1.9577693e+04 
-1.6101767e+04 -5.1771370e+03 -1.8753326e+04 
-2.0131273e+04 -4.1068887e+03 3.1824585e+03 
-5.9792585e+03 8.3659393e+03 -1.5450847e+03 
-1.6955285e+04 -4.8967900e+03 -1.5988695e+04 
-1.1984251e+04 1.6437932e+04 -3.1604755e+03 
-2.0137303e+04 -5.3643185e+03 3.1894331e+03 
-1.1928050e+04 1.6014724e+04 -3.1185583e+03 
-1.2488245e+04 1.3906874e+04 -2.9621973e+03 
-1.9916646e+04 -4.4298609e+03 3.1569727e+03 
-1.6552413e+04 -4.8806202e+03 -1.6331594e+04 
-1.1872116e+04 1.5596166e+04 -3.0759594e+03 
-1.5928391e+04 -5.0147066e+03 -1.7874014e+04 
-1.1817063e+04 1.5181360e+04 -3.0324670e+03 
-1.5781625e+04 -5.1565178e+03 -1.8989916e+04 
-1.6163564e+04 -4.8637196e+03 -1.6653766e+04 
-1.8073500e+04 -5.4414571e+03 -8.2671506e+03 
-1.9714907e+04 -4.7449145e+03 3.1323485e+03 
-1.2445109e+04 1.3512353e+04 -2.9188540e+03 
-1.0294712e+04 -1.2450352e+03 1.6557434e+03 
-1.1763688e+04 1.4770180e+04 -2.9880883e+03 
-2.0421254e+04 -2.7487809e+03 3.2026866e+03 
-2.0138061e+04 -3.1132214e+03 3.1718432e+03 
-1.5587075e+04 -4.9947176e+03 -1.8131533e+04 
-1.5789349e+04 -4.8462931e+03 -1.6956103e+04 
-1.9872234e+04 -3.4648645e+03 3.1425777e+03 
-1.1712774e+04 1.4362388e+04 -2.9428249e+03 
-1.9524814e+04 -5.0504054e+03 3.1075646e+03 
-1.5025703e+04 4.2551547e+03 -8.5800340e+03 
-1.9622584e+04 -3.8042570e+03 3.1145019e+03 
-1.7325922e+04 -4.7187215e+03 -1.4526134e+04 
-1.6893834e+04 -4.7129322e+03 -1.4942277e+04 
-1.5481218e+04 -5.1306468e+03 -1.9190756e+04 
-1.5430393e+04 -4.8285947e+03 -1.7239677e+04 
-1.1665165e+04 1.3958072e+04 -2.8967638e+03 
-1.6477511e+04 -4.6996505e+03 -1.5314205e+04 
-1.9387631e+04 -4.1327084e+03 3.0874445e+03 
-1.5263470e+04 -4.9752866e+03 -1.8373361e+04 
-1.9339667e+04 -5.3724661e+03 3.0897223e+03 
-1.6074386e+04 -4.6862312e+03 -1.5667018e+04 
-5.5429038e+03 8.1295937e+03 -1.4874994e+03 
-1.9165858e+04 -4.4513216e+03 3.0611966e+03 
-1.1113609e+04 1.5977565e+04 -3.0435741e+03 
-1.1621251e+04 1.3554481e+04 -2.8493122e+03 
-1.1063124e+04 1.5570990e+04 -3.0025204e+03 
-1.5087332e+04 -4.8109033e+03 -1.7505699e+04 
-1.5685139e+04 -4.6719646e+03 -1.5998716e+04 
-1.1013095e+04 1.5168871e+04 -2.9608171e+03 
-1.7258955e+04 -5.3447150e+03 -8.1233907e+03 
-1.4958377e+04 -4.9575137e+03 -1.8603876e+04 
-1.8955603e+04 -4.7614397e+03 3.0356626e+03 
-1.0964119e+04 1.4770303e+04 -2.9182571e+03 
-1.5310171e+04 -4.6571116e+03 -1.6310374e+04 
-9.9339017e+03 -1.2668564e+03 1.6084064e+03 
-1.9700113e+04 -2.7892229e+03 3.1090275e+03 
-1.1585220e+04 1.3174979e+04 -2.8067981e+03 
-1.4760795e+04 -4.7935253e+03 -1.7755545e+04 
-1.9416851e+04 -3.1498591e+03 3.0781463e+03 
-1.0916970e+04 1.4375126e+04 -2.8748403e+03 
-1.9149357e+04 -3.4975514e+03 3.0486757e+03 
-1.8755752e+04 -5.0613688e+03 3.0098622e+03 
-1.4949936e+04 -4.6418525e+03 -1.6602896e+04 
-1.8896520e+04 -3.8327585e+03 3.0202408e+03 
-1.0872414e+04 1.3983077e+04 -2.8305628e+03 
-1.4672005e+04 -4.9346739e+03 -1.8799696e+04 
-1.4153899e+04 4.1970201e+03 -8.3843246e+03 
-1.6444600e+04 -4.5092254e+03 -1.4237889e+04 
-1.6023862e+04 -4.5044369e+03 -1.4641093e+04 
-1.4604901e+04 -4.6264138e+03 -1.6877352e+04 
-1.8656950e+04 -4.1566822e+03 2.9926751e+03 
-1.4451406e+04 -4.7767139e+03 -1.7990383e+04 
-1.8559792e+04 -5.3766803e+03 2.9906399e+03 
-1.5619374e+04 -4.4925914e+03 -1.5001018e+04 
-1.0831277e+04 1.3594217e+04 -2.7855032e+03 
-1.8429228e+04 -4.4703259e+03 2.9657779e+03 
-1.5228500e+04 -4.4807450e+03 -1.5342335e+04 
-1.4275540e+04 -4.6110458e+03 -1.7134931e+04 
-5.1266813e+03 7.8970564e+03 -1.4312635e+03 
-1.0283190e+04 1.5524465e+04 -2.9293668e+03 
-1.6464668e+04 -5.2470462e+03 -7.9769173e+03 
-1.4851802e+04 -4.4682031e+03 -1.5663132e+04 
-1.0793935e+04 1.3205830e+04 -2.7390926e+03 
-1.4159789e+04 -4.7615063e+03 -1.8214475e+04 
-1.0238275e+04 1.5134041e+04 -2.8891776e+03 
-1.8211806e+04 -4.7749326e+03 2.9394595e+03 
-1.0193959e+04 1.4747865e+04 -2.8483671e+03 
-1.4489551e+04 -4.4552030e+03 -1.5964501e+04 
-9.5786412e+03 -1.2888821e+03 1.5610463e+03 
-1.8990245e+04 -2.8297077e+03 3.0154726e+03 
-1.0150822e+04 1.4365028e+04 -2.8067329e+03 
-1.8707401e+04 -3.1859655e+03 2.9846113e+03 
-1.3962321e+04 -4.5960247e+03 -1.7376975e+04 
-1.0764578e+04 1.2840781e+04 -2.6973841e+03 
-1.8003691e+04 -5.0687695e+03 2.9127798e+03 
-1.8438890e+04 -3.5291287e+03 2.9550053e+03 
-1.4142070e+04 -4.4419030e+03 -1.6247354e+04 
-1.0109622e+04 1.3985339e+04 -2.7642674e+03 
-1.8183670e+04 -3.8595784e+03 2.9262935e+03 
-1.3885955e+04 -4.7414146e+03 -1.8404839e+04 
-1.0071108e+04 1.3608514e+04 -2.7209615e+03 
-1.3319862e+04 4.1374940e+03 -8.1877850e+03 
-1.7798539e+04 -5.3768603e+03 2.8923312e+03 
-1.7940437e+04 -4.1784178e+03 2.8983140e+03 
-1.3665707e+04 -4.5815761e+03 -1.7604610e+04 
-1.5599507e+04 -4.3051812e+03 -1.3945639e+04 
-1.3809687e+04 -4.4285052e+03 -1.6512755e+04 
-1.5189486e+04 -4.3012903e+03 -1.4336342e+04 
-1.4796080e+04 -4.2907533e+03 -1.4684661e+04 
-1.7707866e+04 -4.4865602e+03 2.8708741e+03 
-1.0036095e+04 1.3234586e+04 -2.6768857e+03 
-1.4416599e+04 -4.2803336e+03 -1.5014827e+04 
-1.5691369e+04 -5.1485420e+03 -7.8278598e+03 
-1.3492734e+04 -4.4152340e+03 -1.6761872e+04 
-1.3386171e+04 -4.5686778e+03 -1.7821979e+04 
-1.7484513e+04 -4.7851577e+03 2.8438897e+03 
-1.4051498e+04 -4.2693533e+03 -1.5325006e+04 
-1.0004947e+04 1.2860876e+04 -2.6314940e+03 
-4.7299156e+03 7.6682059e+03 -1.3763545e+03 
-9.4916374e+03 1.5078408e+04 -2.8178096e+03 
-9.4521504e+03 1.4703680e+04 -2.7784855e+03 
-9.2295624e+03 -1.3107654e+03 1.5137509e+03 
-1.8292904e+04 -2.8695900e+03 2.9221863e+03 
-1.3700940e+04 -4.2580284e+03 -1.5616301e+04 
-9.4133575e+03 1.4332977e+04 -2.7385650e+03 
-1.8010934e+04 -3.2209663e+03 2.8914004e+03 
-1.3191541e+04 -4.4023383e+03 -1.6996015e+04 
-1.7269495e+04 -5.0724486e+03 2.8164599e+03 
-1.7742008e+04 -3.5590945e+03 2.8617260e+03 
-9.9818547e+03 1.2509749e+04 -2.5905704e+03 
-9.3758303e+03 1.3965393e+04 -2.6978503e+03 
-1.3365131e+04 -4.2464977e+03 -1.5889630e+04 
-1.3123545e+04 -4.5510771e+03 -1.8006512e+04 
-1.7485148e+04 -3.8842884e+03 2.8328157e+03 
-9.3403120e+03 1.3600707e+04 -2.6563265e+03 
-1.7056626e+04 -5.3729197e+03 2.7949290e+03 
-1.7239131e+04 -4.1975607e+03 2.8045122e+03 
-1.2906428e+04 -4.3900188e+03 -1.7216267e+04 
-1.2522302e+04 4.0766048e+03 -7.9905402e+03 
-9.3075406e+03 1.3238614e+04 -2.6139792e+03 
-1.3044279e+04 -4.2349415e+03 -1.6146047e+04 
-1.4789412e+04 -4.1065609e+03 -1.3649660e+04 
-1.4389541e+04 -4.1034727e+03 -1.4028267e+04 
-1.7002719e+04 -4.4997430e+03 2.7766304e+03 
-1.4006548e+04 -4.0941265e+03 -1.4365353e+04 
-1.4939655e+04 -5.0492900e+03 -7.6763523e+03 
-9.2783201e+03 1.2879123e+04 -2.5708707e+03 
-1.3637699e+04 -4.0849996e+03 -1.4684690e+04 
-1.2738596e+04 -4.2235608e+03 -1.6386702e+04 
-1.2637736e+04 -4.3791974e+03 -1.7426665e+04 
-1.6774563e+04 -4.7919061e+03 2.7490914e+03 
-1.3283356e+04 -4.0754318e+03 -1.4984518e+04 
-9.2530085e+03 1.2519595e+04 -2.5264778e+03 
-4.3519630e+03 7.4429378e+03 -1.3227522e+03 
-8.8872116e+03 -1.3321896e+03 1.4666015e+03 
-8.7376608e+03 1.4639201e+04 -2.7088626e+03 
-1.7609175e+04 -2.9082813e+03 2.8293213e+03 
-1.6553882e+04 -5.0722675e+03 2.7210326e+03 
-1.2943587e+04 -4.0656201e+03 -1.5265948e+04 
-8.7034591e+03 1.4279738e+04 -2.6704041e+03 
-1.7328504e+04 -3.2543389e+03 2.7986642e+03 
-1.2448286e+04 -4.2125796e+03 -1.6612869e+04 
-8.6700063e+03 1.3924067e+04 -2.6313713e+03 
-1.7059719e+04 -3.5869942e+03 2.7689853e+03 
-1.2385140e+04 -4.3638540e+03 -1.7605049e+04 
-9.2357952e+03 1.2181888e+04 -2.4863209e+03 
-8.6378679e+03 1.3571283e+04 -2.5915703e+03 
-1.2618497e+04 -4.0556858e+03 -1.5529897e+04 
-1.6801906e+04 -3.9065021e+03 2.7399512e+03 
-1.6334633e+04 -5.3647864e+03 2.6985540e+03 
-8.6077766e+03 1.3221141e+04 -2.5509793e+03 
-1.6553913e+04 -4.2137930e+03 2.7114089e+03 
-1.2173550e+04 -4.2021768e+03 -1.6825598e+04 
-1.2308191e+04 -4.0457896e+03 -1.5777411e+04 
-1.1760000e+04 4.0143842e+03 -7.7927181e+03 
-1.4013150e+04 -3.9133392e+03 -1.3350226e+04 
-8.5804619e+03 1.2873314e+04 -2.5095786e+03 
-1.3622923e+04 -3.9109662e+03 -1.3717120e+04 
-1.6314581e+04 -4.5096249e+03 2.6831803e+03 
-1.4209996e+04 -4.9493747e+03 -7.5225334e+03 
-1.3249748e+04 -3.9027024e+03 -1.4043320e+04 
-1.2890858e+04 -3.8947457e+03 -1.4352131e+04 
-1.1914609e+04 -4.1932212e+03 -1.7028817e+04 
-1.2012773e+04 -4.0361116e+03 -1.6009618e+04 
-8.5567206e+03 1.2527792e+04 -2.4674227e+03 
-1.6082651e+04 -4.7949946e+03 2.6551914e+03 
-1.2546532e+04 -3.8864543e+03 -1.4641864e+04 
-8.5520556e+03 -1.3528674e+03 1.4196738e+03 
-8.5369060e+03 1.2181975e+04 -2.4240102e+03 
-1.5857432e+04 -5.0681078e+03 2.6266168e+03 
-1.6939981e+04 -2.9452490e+03 2.7370195e+03 
-1.6661005e+04 -3.2856119e+03 2.7065420e+03 
-1.1732341e+04 -4.0268536e+03 -1.6227762e+04 
-3.9922083e+03 7.2211626e+03 -1.2704384e+03 
-1.2216756e+04 -3.8780079e+03 -1.4913630e+04 
-8.0200270e+03 1.4206680e+04 -2.6024896e+03 
-7.9909699e+03 1.3862074e+04 -2.5648974e+03 
-1.6392878e+04 -3.6124190e+03 2.6769199e+03 
-1.1671001e+04 -4.1799229e+03 -1.7200786e+04 
-7.9626787e+03 1.3521016e+04 -2.5267500e+03 
-1.6134742e+04 -3.9258744e+03 2.6478329e+03 
-8.5252058e+03 1.1857213e+04 -2.3846041e+03 
-1.1901547e+04 -3.8695125e+03 -1.5168345e+04 
-1.5633016e+04 -5.3524021e+03 2.6033162e+03 
-7.9357166e+03 1.3182605e+04 -2.4878576e+03 
-1.1466989e+04 -4.0181743e+03 -1.6432857e+04 
-1.5885513e+04 -4.2268330e+03 2.6191321e+03 
-7.9108087e+03 1.2846570e+04 -2.4481914e+03 
-1.1600919e+04 -3.8611112e+03 -1.5407043e+04 
-1.1031798e+04 3.9508667e+03 -7.5944494e+03 
-1.5644106e+04 -4.5159866e+03 2.5906462e+03 
-1.3502749e+04 -4.8488777e+03 -7.3665461e+03 
-1.3269613e+04 -3.7254922e+03 -1.3047617e+04 
-1.2888578e+04 -3.7237541e+03 -1.3403154e+04 
-7.8886787e+03 1.2512570e+04 -2.4077265e+03 
-1.2524696e+04 -3.7164729e+03 -1.3718797e+04 
-1.1216836e+04 -4.0108929e+03 -1.6628728e+04 
-1.5409339e+04 -4.7942653e+03 2.5623057e+03 
-1.1314882e+04 -3.8529652e+03 -1.5630833e+04 
-1.2175170e+04 -3.7095738e+03 -1.4017371e+04 
-7.8701189e+03 1.2180571e+04 -2.3665098e+03 
-1.1840209e+04 -3.7024344e+03 -1.4297253e+04 
-1.5180604e+04 -5.0598700e+03 2.5333212e+03 
-8.2244876e+03 -1.3725404e+03 1.3730380e+03 
-1.6286102e+04 -2.9800144e+03 2.6454125e+03 
-1.6009187e+04 -3.3143635e+03 2.6151632e+03 
-1.1043443e+04 -3.8452563e+03 -1.5840927e+04 
-7.8554800e+03 1.1848017e+04 -2.3240610e+03 
-1.1519725e+04 -3.6952187e+03 -1.4559551e+04 
-1.0981294e+04 -3.9994473e+03 -1.6794065e+04 
-1.5742195e+04 -3.6350052e+03 2.5856558e+03 
-3.6500624e+03 7.0028038e+03 -1.2193964e+03 
-7.3375551e+03 1.3780705e+04 -2.4986579e+03 
-7.3135032e+03 1.3450571e+04 -2.4619326e+03 
-1.5484317e+04 -3.9420999e+03 2.5565832e+03 
-1.4952117e+04 -5.3357222e+03 2.5093159e+03 
-1.1213659e+04 -3.6880188e+03 -1.4805179e+04 
-7.2902001e+03 1.3123729e+04 -2.4246688e+03 
-7.8489470e+03 1.1535750e+04 -2.2853924e+03 
-1.0786602e+04 -3.8381254e+03 -1.6038308e+04 
-1.5234530e+04 -4.2364337e+03 2.5277998e+03 
-7.2682096e+03 1.2799283e+04 -2.3866803e+03 
-1.2818168e+04 -4.7478784e+03 -7.2085374e+03 
-1.0921945e+04 -3.6809622e+03 -1.5035158e+04 
-1.4991816e+04 -4.5186386e+03 2.4991409e+03 
-7.2482522e+03 1.2476942e+04 -2.3479317e+03 
-1.0336589e+04 3.8860892e+03 -7.3958670e+03 
-1.2557745e+04 -3.5429973e+03 -1.2742114e+04 
-1.2185501e+04 -3.5418199e+03 -1.3086632e+04 
-7.2310479e+03 1.2156348e+04 -2.3083930e+03 
-1.0544389e+04 -3.8323446e+03 -1.6226702e+04 
-1.4755064e+04 -4.7895844e+03 2.4705408e+03 
-1.1830443e+04 -3.5354296e+03 -1.3392028e+04 
-1.0644515e+04 -3.6741931e+03 -1.5250575e+04 
-1.1489757e+04 -3.5294852e+03 -1.3680639e+04 
-7.2173868e+03 1.1837450e+04 -2.2681034e+03 
-1.4523739e+04 -5.0474737e+03 2.4412451e+03 
-1.1163586e+04 -3.5233842e+03 -1.3950905e+04 
-7.9048329e+03 -1.3909773e+03 1.3267594e+03 
-1.5648178e+04 -3.0121506e+03 2.5546222e+03 
-1.5373666e+04 -3.3402192e+03 2.5246474e+03 
-1.0381291e+04 -3.6678753e+03 -1.5452614e+04 
-1.0316105e+04 -3.8225767e+03 -1.6385229e+04 
-7.2076196e+03 1.1517734e+04 -2.2266036e+03 
-1.5108248e+04 -3.6544316e+03 2.4953098e+03 
-1.0851778e+04 -3.5172762e+03 -1.4203929e+04 
-1.4292172e+04 -5.3147158e+03 2.4166442e+03 
-1.4851159e+04 -3.9549113e+03 2.4663149e+03 
-3.3249595e+03 6.7877962e+03 -1.1696110e+03 
-6.6891112e+03 1.3361159e+04 -2.3973376e+03 
-6.6699265e+03 1.3045130e+04 -2.3614798e+03 
-1.0554208e+04 -3.5112415e+03 -1.4440619e+04 
-1.0132194e+04 -3.6621339e+03 -1.5642228e+04 
-7.2059269e+03 1.1217531e+04 -2.1886609e+03 
-1.4601435e+04 -4.2423813e+03 2.4375205e+03 
-6.6514425e+03 1.2732126e+04 -2.3250980e+03 
-6.6342264e+03 1.2421259e+04 -2.2880095e+03 
-1.2156411e+04 -4.6464539e+03 -7.0486579e+03 
-1.4358114e+04 -4.5174195e+03 2.4087676e+03 
-1.0270740e+04 -3.5053930e+03 -1.4661982e+04 
-6.6189962e+03 1.2112218e+04 -2.2501720e+03 
-9.6733165e+03 3.8200913e+03 -7.1971062e+03 
-1.1876532e+04 -3.3658318e+03 -1.2434001e+04 
-9.8971753e+03 -3.6576964e+03 -1.5823046e+04 
-1.1512722e+04 -3.3651473e+03 -1.2767819e+04 
-1.4120152e+04 -4.7808413e+03 2.3799939e+03 
-1.1166077e+04 -3.3595632e+03 -1.3063263e+04 
-6.6064710e+03 1.1804632e+04 -2.2115509e+03 
-1.0001235e+04 -3.4998600e+03 -1.4869084e+04 
-1.0833768e+04 -3.3544792e+03 -1.3342175e+04 
-1.3887077e+04 -5.0308566e+03 2.3504789e+03 
-6.5974402e+03 1.1498431e+04 -2.1721779e+03 
-1.0515882e+04 -3.3493129e+03 -1.3603053e+04 
-7.5933538e+03 -1.4079730e+03 1.2808984e+03 
-1.5026729e+04 -3.0412803e+03 2.4647619e+03 
-1.4754932e+04 -3.3628499e+03 2.4351051e+03 
-9.7455458e+03 -3.4947900e+03 -1.5063082e+04 
-9.6754373e+03 -3.6494479e+03 -1.5974628e+04 
-1.4491492e+04 -3.6704183e+03 2.4059894e+03 
-1.0212210e+04 -3.3442009e+03 -1.3846993e+04 
-1.3653326e+04 -5.2893653e+03 2.3253840e+03 
-6.5922564e+03 1.1191145e+04 -2.1316137e+03 
-1.4235681e+04 -3.9640779e+03 2.3771322e+03 
-3.0163553e+03 6.5760847e+03 -1.1210682e+03 
-6.0736046e+03 1.2947942e+04 -2.2985010e+03 
-9.9225682e+03 -3.3392126e+03 -1.4074896e+04 
-9.5035206e+03 -3.4902941e+03 -1.5244901e+04 
-1.3986586e+04 -4.2444938e+03 2.3483939e+03 
-6.0591501e+03 1.2645671e+04 -2.2635116e+03 
-6.5950953e+03 1.0902597e+04 -2.0943876e+03 
-1.1517549e+04 -4.5446802e+03 -6.8870618e+03 
-6.0453201e+03 1.2346146e+04 -2.2280106e+03 
-1.3743297e+04 -4.5121952e+03 2.3196209e+03 
-6.0326878e+03 1.2048490e+04 -2.1918184e+03 
-9.6467603e+03 -3.3344482e+03 -1.4287753e+04 
-9.0409611e+03 3.7529149e+03 -6.9983045e+03 
-6.0219708e+03 1.1752373e+04 -2.1548866e+03 
-9.2750437e+03 -3.4870575e+03 -1.5418076e+04 
-1.3504827e+04 -4.7679477e+03 2.2907539e+03 
-1.1225001e+04 -3.1939727e+03 -1.2123564e+04 
-1.0869309e+04 -3.1937189e+03 -1.2446988e+04 
-9.3845850e+03 -3.3300236e+03 -1.4486612e+04 
-1.0530713e+04 -3.1888634e+03 -1.2732761e+04 
-6.0138891e+03 1.1457414e+04 -2.1171755e+03 
-1.0206375e+04 -3.1845535e+03 -1.3002227e+04 
-1.3270762e+04 -5.0099739e+03 2.2611050e+03 
-7.2902554e+03 -1.4233475e+03 1.2355113e+03 
-1.4422155e+04 -3.0670730e+03 2.3759361e+03 
-6.0092335e+03 1.1163523e+04 -2.0787098e+03 
-9.8963307e+03 -3.1802274e+03 -1.3253938e+04 
-9.0592293e+03 -3.4801845e+03 -1.5562610e+04 
-1.4153365e+04 -3.3819692e+03 2.3466387e+03 
-9.1358342e+03 -3.3260716e+03 -1.4672601e+04 
-1.3892272e+04 -3.6827239e+03 2.3177940e+03 
-1.3035636e+04 -5.2596663e+03 2.2356108e+03 
-9.6003222e+03 -3.1760096e+03 -1.3488984e+04 
-1.3638186e+04 -3.9694031e+03 2.2891306e+03 
-6.0083601e+03 1.0868279e+04 -2.0390695e+03 
-1.3390236e+04 -4.2426191e+03 2.2605114e+03 
-8.9002936e+03 -3.3226906e+03 -1.4846619e+04 
-9.3181122e+03 -3.1719597e+03 -1.3708253e+04 
-1.0901579e+04 -4.4426314e+03 -6.7239059e+03 
-2.7237245e+03 6.3676229e+03 -1.0737552e+03 
-5.4899830e+03 1.2540972e+04 -2.2021230e+03 
-5.4801225e+03 1.2252127e+04 -2.1680027e+03 
-6.0154386e+03 1.0590994e+04 -2.0025524e+03 
-1.3147560e+04 -4.5028569e+03 2.2317876e+03 
-5.4707851e+03 1.1965738e+04 -2.1333814e+03 
-9.0494521e+03 -3.1681669e+03 -1.3912723e+04 
-5.4625520e+03 1.1680942e+04 -2.0980827e+03 
-8.6777886e+03 -3.3205262e+03 -1.5012112e+04 
-1.2909220e+04 -4.7508367e+03 2.2029021e+03 
-8.4385404e+03 3.6846046e+03 -6.7996010e+03 
-1.0602208e+04 -3.0273963e+03 -1.1811092e+04 
-5.4561425e+03 1.1397392e+04 -2.0620516e+03 
-1.0254357e+04 -3.0275163e+03 -1.2124414e+04 
-8.7940870e+03 -3.1647348e+03 -1.4103421e+04 
-9.9234902e+03 -3.0233182e+03 -1.2400786e+04 
-1.2674852e+04 -4.9847979e+03 2.1731988e+03 
-5.4522792e+03 1.1114694e+04 -2.0252440e+03 
-9.6067683e+03 -3.0197036e+03 -1.2661050e+04 
-8.4673545e+03 -3.3148982e+03 -1.5149528e+04 
-6.9956903e+03 -1.4369437e+03 1.1906498e+03 
-1.3834755e+04 -3.0892424e+03 2.2882415e+03 
-9.3041788e+03 -3.0161313e+03 -1.2903813e+04 
-1.3569238e+04 -3.3973315e+03 2.2593422e+03 
-8.5517544e+03 -3.1617830e+03 -1.4281450e+04 
-5.4517559e+03 1.0832745e+04 -1.9876774e+03 
-1.2439079e+04 -5.2256273e+03 2.1473931e+03 
-1.3310833e+04 -3.6911436e+03 2.2308147e+03 
-9.0154202e+03 -3.0127149e+03 -1.3130151e+04 
-1.3058879e+04 -3.9707233e+03 2.2023980e+03 
-5.4549338e+03 1.0549171e+04 -1.9489507e+03 
-1.2812544e+04 -4.2366339e+03 2.1739568e+03 
-8.3221862e+03 -3.1593989e+03 -1.4447683e+04 
-1.0308425e+04 -4.3403809e+03 -6.5593497e+03 
-8.7402093e+03 -3.0095056e+03 -1.3340942e+04 
-2.4465597e+03 6.1623726e+03 -1.0276598e+03 
-1.2571008e+04 -4.4893205e+03 2.1453468e+03 
-4.9372294e+03 1.2140183e+04 -2.1081800e+03 
-5.4659759e+03 1.0282774e+04 -1.9131369e+03 
-4.9318272e+03 1.1864447e+04 -2.0749295e+03 
-8.4782511e+03 -3.0065823e+03 -1.3537151e+04 
-4.9268238e+03 1.1590868e+04 -2.0411873e+03 
-8.1051565e+03 -3.1581903e+03 -1.4605478e+04 
-1.2333376e+04 -4.7294615e+03 2.1165126e+03 
-4.9228109e+03 1.1318596e+04 -2.0067794e+03 
-7.8651033e+03 3.6152069e+03 -6.6011371e+03 
-1.0007242e+04 -2.8660774e+03 -1.1496879e+04 
-9.6669881e+03 -2.8665195e+03 -1.1800377e+04 
-4.9205107e+03 1.1047269e+04 -1.9716449e+03 
-8.2292433e+03 -3.0040376e+03 -1.3719782e+04 
-1.2099326e+04 -4.9553172e+03 2.0868285e+03 
-9.3435719e+03 -2.8629132e+03 -1.2067609e+04 
-4.9206502e+03 1.0776484e+04 -1.9357351e+03 
-9.0341552e+03 -2.8599220e+03 -1.2318910e+04 
-7.8996301e+03 -3.1536890e+03 -1.4735736e+04 
-6.7097628e+03 -1.4486268e+03 1.1463618e+03 
-1.3264732e+04 -3.1075438e+03 2.2017672e+03 
-1.3002732e+04 -3.4087288e+03 2.1733026e+03 
-7.9928766e+03 -3.0019794e+03 -1.3889914e+04 
-8.7386829e+03 -2.8570250e+03 -1.2552937e+04 
-1.1863566e+04 -5.1872693e+03 2.0607931e+03 
-1.2747325e+04 -3.6955069e+03 2.1451356e+03 
-4.9240276e+03 1.0506123e+04 -1.8990606e+03 
-1.2497874e+04 -3.9679050e+03 2.1170149e+03 
-8.4568147e+03 -2.8543259e+03 -1.2770753e+04 
-4.9310110e+03 1.0233861e+04 -1.8612386e+03 
-1.2253583e+04 -4.2264415e+03 2.0888069e+03 
-7.7688356e+03 -3.0004853e+03 -1.4048398e+04 
-9.7379486e+03 -4.2380010e+03 -6.3935548e+03 
-8.1882266e+03 -2.8518681e+03 -1.2973227e+04 
-1.2013665e+04 -4.4715246e+03 2.0603708e+03 
-2.1843694e+03 5.9603026e+03 -9.8277081e+02 
-4.9457555e+03 9.9779924e+03 -1.8261238e+03 
-4.4143590e+03 1.1745521e+04 -2.0166501e+03 
-7.9325826e+03 -2.8497216e+03 -1.3161305e+04 
-4.4132794e+03 1.1482590e+04 -1.9842702e+03 
-7.5568504e+03 -3.0001272e+03 -1.4198503e+04 
-1.1777266e+04 -4.7037948e+03 2.0316527e+03 
-4.4124543e+03 1.1221508e+04 -1.9514064e+03 
-4.4124871e+03 1.0961439e+04 -1.9178872e+03 
-7.3197264e+03 3.5447708e+03 -6.4030556e+03 
-9.4392155e+03 -2.7099892e+03 -1.1181219e+04 
-7.6895393e+03 -2.8479692e+03 -1.3335974e+04 
-1.1544095e+04 -4.9215359e+03 2.0020562e+03 
-9.1063469e+03 -2.7107062e+03 -1.1475163e+04 
-4.4141047e+03 1.0702006e+04 -1.8836458e+03 
-8.7901384e+03 -2.7076321e+03 -1.1733507e+04 
-7.3558223e+03 -2.9966453e+03 -1.4321589e+04 
-8.4877571e+03 -2.7051986e+03 -1.1976075e+04 
-4.4180401e+03 1.0442800e+04 -1.8486288e+03 
-6.4325340e+03 -1.4582824e+03 1.1026915e+03 
-1.2712200e+04 -3.1217711e+03 2.1165953e+03 
-1.1308941e+04 -5.1446259e+03 1.9758672e+03 
-1.2453941e+04 -3.4159890e+03 2.0885996e+03 
-7.4587464e+03 -2.8467081e+03 -1.3498288e+04 
-8.1991092e+03 -2.7029054e+03 -1.2201576e+04 
-1.2201815e+04 -3.6956757e+03 2.0608336e+03 
-4.4250971e+03 1.0183688e+04 -1.8128404e+03 
-1.1955207e+04 -3.9608440e+03 2.0330551e+03 
-7.9238195e+03 -2.7008469e+03 -1.2411058e+04 
-9.1899532e+03 -4.1355632e+03 -6.2266850e+03 
-1.1713347e+04 -4.2119705e+03 2.0051316e+03 
-7.2398473e+03 -2.8460073e+03 -1.3649074e+04 
-4.4356520e+03 9.9223955e+03 -1.7759154e+03 
-7.6615281e+03 -2.6990600e+03 -1.2605376e+04 
-1.1475483e+04 -4.4494300e+03 1.9769255e+03 
-4.4538515e+03 9.6767091e+03 -1.7414968e+03 
-1.9366765e+03 5.7613878e+03 -9.3907763e+02 
-7.4118630e+03 -2.6976063e+03 -1.2785463e+04 
-7.0325339e+03 -2.8464048e+03 -1.3791520e+04 
-3.9204162e+03 1.1356943e+04 -1.9275126e+03 
-1.1240789e+04 -4.6738275e+03 1.9483838e+03 
-3.9235234e+03 1.1106529e+04 -1.8960039e+03 
-3.9267228e+03 1.0857644e+04 -1.8640181e+03 
-3.9306309e+03 1.0609469e+04 -1.8313858e+03 
-6.8015115e+03 3.4733477e+03 -6.2055007e+03 
-1.1009005e+04 -4.8834734e+03 1.9189381e+03 
-7.1744447e+03 -2.6965600e+03 -1.2952284e+04 
-8.8972647e+03 -2.5591025e+03 -1.0864411e+04 
-8.5715980e+03 -2.5600519e+03 -1.1149061e+04 
-3.9359811e+03 1.0361616e+04 -1.7980344e+03 
-8.2623872e+03 -2.5574553e+03 -1.1398760e+04 
-6.8356510e+03 -2.8438448e+03 -1.3907442e+04 
-6.1640250e+03 -1.4658154e+03 1.0596795e+03 
-7.9668081e+03 -2.5555198e+03 -1.1632823e+04 
-1.2177196e+04 -3.1317551e+03 2.0328010e+03 
-1.0774994e+04 -5.0977424e+03 1.8926665e+03 
-1.1922881e+04 -3.4189734e+03 2.0053061e+03 
-3.9435132e+03 1.0113666e+04 -1.7639062e+03 
-6.9488869e+03 -2.6960087e+03 -1.3106869e+04 
-1.1674295e+04 -3.6915420e+03 1.9779790e+03 
-7.6847315e+03 -2.5537653e+03 -1.1850005e+04 
-1.1430837e+04 -3.9494627e+03 1.9505858e+03 
-3.9540381e+03 9.8654774e+03 -1.7289989e+03 
-8.6641921e+03 -4.0331387e+03 -6.0589054e+03 
-7.4157512e+03 -2.5522782e+03 -1.2051338e+04 
-1.1191763e+04 -4.1931732e+03 1.9229947e+03 
-6.7347975e+03 -2.6960138e+03 -1.3250027e+04 
-3.9679418e+03 9.6148234e+03 -1.6929642e+03 
-7.1594754e+03 -2.5510888e+03 -1.2237667e+04 
-1.0956345e+04 -4.4230175e+03 1.8950707e+03 
-6.5318354e+03 -2.6970811e+03 -1.3384861e+04 
-6.9155002e+03 -2.5502519e+03 -1.2409906e+04 
-1.0723785e+04 -4.6395677e+03 1.8667613e+03 
-3.9893614e+03 9.3789871e+03 -1.6592406e+03 
-1.7030177e+03 5.5656093e+03 -8.9657011e+02 
-3.4544721e+03 1.0974419e+04 -1.8407482e+03 
-3.4616300e+03 1.0736242e+04 -1.8101112e+03 
-3.4687016e+03 1.0499266e+04 -1.7790029e+03 
-1.0493847e+04 -4.8411632e+03 1.8375250e+03 
-6.6834146e+03 -2.5498337e+03 -1.2569001e+04 
-6.3095822e+03 3.4009913e+03 -6.0086184e+03 
-8.3805463e+03 -2.4133859e+03 -1.0546756e+04 
-3.4763184e+03 1.0262690e+04 -1.7472559e+03 
-8.0619241e+03 -2.4145293e+03 -1.0822363e+04 
-6.3387949e+03 -2.6953546e+03 -1.3493653e+04 
-7.7595305e+03 -2.4123604e+03 -1.1063655e+04 
-3.4852211e+03 1.0026113e+04 -1.7147919e+03 
-5.9042217e+03 -1.4711488e+03 1.0173634e+03 
-1.0261463e+04 -5.0466757e+03 1.8112368e+03 
-1.1659685e+04 -3.1373602e+03 1.9504533e+03 
-7.4705531e+03 -2.4108686e+03 -1.1289435e+04 
-1.1409500e+04 -3.4175742e+03 1.9234890e+03 
-6.4628011e+03 -2.5499132e+03 -1.2715961e+04 
-3.4961578e+03 9.7891115e+03 -1.6815489e+03 
-1.1164688e+04 -3.6830259e+03 1.8966360e+03 
-7.1948305e+03 -2.4095940e+03 -1.1498503e+04 
-1.0924659e+04 -3.9337087e+03 1.8696682e+03 
-8.1603718e+03 -3.9307977e+03 -5.8903826e+03 
-3.5099475e+03 9.5515318e+03 -1.6475185e+03 
-6.9319285e+03 -2.4086150e+03 -1.1691875e+04 
-1.0688691e+04 -4.1700240e+03 1.8424538e+03 
-6.2532364e+03 -2.5505452e+03 -1.2851575e+04 
-1.0456075e+04 -4.3922875e+03 1.8148604e+03 
-6.6814272e+03 -2.4079569e+03 -1.1870383e+04 
-3.5269874e+03 9.3111987e+03 -1.6123686e+03 
-6.0543515e+03 -2.5522048e+03 -1.2978863e+04 
-1.0226038e+04 -4.6010404e+03 1.7868352e+03 
-6.4428944e+03 -2.4076680e+03 -1.2034923e+04 
-3.5514040e+03 9.0848923e+03 -1.5793398e+03 
-1.4829415e+03 5.3729529e+03 -8.5523854e+02 
-3.0156224e+03 1.0597928e+04 -1.7563382e+03 
-3.0266941e+03 1.0371720e+04 -1.7265731e+03 
-9.9983593e+03 -4.7946528e+03 1.7578628e+03 
-3.0374870e+03 1.0146376e+04 -1.6963419e+03 
-6.2158914e+03 -2.4078073e+03 -1.2186425e+04 
-5.8430826e+03 3.3277574e+03 -5.8125557e+03 
-7.8882353e+03 -2.2728052e+03 -1.0228558e+04 
-5.8648952e+03 -2.5512314e+03 -1.3080575e+04 
-3.0486488e+03 9.9211143e+03 -1.6654788e+03 
-7.5765235e+03 -2.2741082e+03 -1.0495366e+04 
-9.7680392e+03 -4.9914943e+03 1.7316194e+03 
-7.2807933e+03 -2.2723217e+03 -1.0728484e+04 
-5.6530775e+03 -1.4742220e+03 9.7577727e+02 
-3.0609286e+03 9.6955215e+03 -1.6339001e+03 
-1.1159568e+04 -3.1384826e+03 1.8696152e+03 
-1.0913682e+04 -3.4117128e+03 1.8432090e+03 
-5.9999736e+03 -2.4084462e+03 -1.2325873e+04 
-6.9982467e+03 -2.2712243e+03 -1.0946198e+04 
-1.0672857e+04 -3.6700741e+03 1.8168630e+03 
-3.0750841e+03 9.4691704e+03 -1.6015394e+03 
-6.7286927e+03 -2.2703760e+03 -1.1147355e+04 
-1.0436509e+04 -3.9135535e+03 1.7903577e+03 
-7.6781576e+03 -3.8286103e+03 -5.7212847e+03 
-6.4716721e+03 -2.2698482e+03 -1.1332954e+04 
-3.0919433e+03 9.2418971e+03 -1.5683823e+03 
-1.0203936e+04 -4.1425185e+03 1.7635614e+03 
-5.7946909e+03 -2.4096337e+03 -1.2454040e+04 
-9.9744464e+03 -4.3572586e+03 1.7363434e+03 
-6.2267397e+03 -2.2696614e+03 -1.1503811e+04 
-3.1119159e+03 9.0115783e+03 -1.5341126e+03 
-5.5996501e+03 -2.4118156e+03 -1.2573864e+04 
-9.7472826e+03 -4.5582857e+03 1.7086506e+03 
-5.9934385e+03 -2.2698581e+03 -1.1660809e+04 
-3.1391169e+03 8.7944933e+03 -1.5017796e+03 
-9.5222370e+03 -4.7440025e+03 1.6799922e+03 
-1.2760082e+03 5.1834094e+03 -8.1507350e+02 
-2.6029854e+03 1.0227456e+04 -1.6742646e+03 
-2.6178331e+03 1.0012959e+04 -1.6453714e+03 
-5.7713057e+03 -2.2704911e+03 -1.1804857e+04 
-5.4135598e+03 -2.4115222e+03 -1.2668564e+04 
-2.6321971e+03 9.7989810e+03 -1.6160169e+03 
-5.4011746e+03 3.2537043e+03 -5.6174607e+03 
-7.4195231e+03 -2.1373229e+03 -9.9101219e+03 
-7.1146093e+03 -2.1387549e+03 -1.0168370e+04 
-2.6467426e+03 9.5847582e+03 -1.5860364e+03 
-9.2943747e+03 -4.9322771e+03 1.6538511e+03 
-6.8254125e+03 -2.1373098e+03 -1.0393539e+04 
-5.4105170e+03 -1.4749906e+03 9.3495246e+02 
-1.0676691e+04 -3.1350480e+03 1.7903440e+03 
-1.0435254e+04 -3.4013377e+03 1.7645215e+03 
-5.5598728e+03 -2.2716248e+03 -1.1936917e+04 
-2.6622283e+03 9.3698688e+03 -1.5553409e+03 
-6.5491522e+03 -2.1365621e+03 -1.0603402e+04 
-1.0198607e+04 -3.6526575e+03 1.7387128e+03 
-7.2171779e+03 -3.7266461e+03 -5.5517802e+03 
-6.2856100e+03 -2.1360917e+03 -1.0796851e+04 
-2.6794223e+03 9.1538812e+03 -1.5238601e+03 
-9.9661708e+03 -3.8889903e+03 1.7127045e+03 
-9.7372551e+03 -4.1106716e+03 1.6863644e+03 
-5.3586666e+03 -2.2733031e+03 -1.2057745e+04 
-6.0343041e+03 -2.1359634e+03 -1.0974865e+04 
-2.6991628e+03 8.9366225e+03 -1.4915736e+03 
-9.5111817e+03 -4.3179663e+03 1.6595634e+03 
-5.7947668e+03 -2.1361937e+03 -1.1138247e+04 
-2.7218730e+03 8.7160218e+03 -1.4581803e+03 
-5.1672736e+03 -2.2759443e+03 -1.2170202e+04 
-9.2872078e+03 -4.5113588e+03 1.6322475e+03 
-5.5665194e+03 -2.1368197e+03 -1.1287862e+04 
-2.7516554e+03 8.5078604e+03 -1.4265449e+03 
-9.0651336e+03 -4.6892855e+03 1.6039496e+03 
-1.0817879e+03 4.9969735e+03 -7.7606580e+02 
-2.2157001e+03 9.8629986e+03 -1.5945101e+03 
-5.3490775e+03 -2.1378887e+03 -1.1424601e+04 
-4.9843663e+03 -2.2762643e+03 -1.2257975e+04 
-2.2341848e+03 9.6599627e+03 -1.5664885e+03 
-4.9830369e+03 3.1788925e+03 -5.4234825e+03 
-2.2519702e+03 9.4570930e+03 -1.5380099e+03 
-8.8400852e+03 -4.8691137e+03 1.5779644e+03 
-6.9736167e+03 -2.0068986e+03 -9.5917568e+03 
-6.6754072e+03 -2.0084323e+03 -9.8416770e+03 
-5.1764390e+03 -1.4734241e+03 8.9491750e+02 
-2.2697403e+03 9.2536445e+03 -1.5089107e+03 
-1.0210844e+04 -3.1270098e+03 1.7126916e+03 
-6.3926356e+03 -2.0072914e+03 -1.0059120e+04 
-9.9739939e+03 -3.3864226e+03 1.6874763e+03 
-5.1419523e+03 -2.1394588e+03 -1.1549406e+04 
-9.7416977e+03 -3.6307702e+03 1.6622329e+03 
-6.1225408e+03 -2.0068533e+03 -1.0261345e+04 
-2.2882641e+03 9.0491871e+03 -1.4790968e+03 
-6.7770280e+03 -3.6249745e+03 -5.3820390e+03 
-9.5133788e+03 -3.8600331e+03 1.6367533e+03 
-5.8648789e+03 -2.0067171e+03 -1.0447286e+04 
-2.3083212e+03 8.8432861e+03 -1.4484938e+03 
-9.2883570e+03 -4.0745166e+03 1.6109048e+03 
-4.9446505e+03 -2.1415696e+03 -1.1663017e+04 
-5.6191481e+03 -2.0069416e+03 -1.0617904e+04 
-2.3307610e+03 8.6357602e+03 -1.4170756e+03 
-9.0659633e+03 -4.2744624e+03 1.5845593e+03 
-5.3848606e+03 -2.0075398e+03 -1.0773987e+04 
-4.7567415e+03 -2.1446131e+03 -1.1768216e+04 
-2.3560211e+03 8.4245915e+03 -1.3845556e+03 
-8.8454654e+03 -4.4603286e+03 1.5576616e+03 
-5.1615181e+03 -2.0085442e+03 -1.0916384e+04 
-8.6266675e+03 -4.6305867e+03 1.5297673e+03 
-2.3881907e+03 8.2250662e+03 -1.3536208e+03 
-4.5768659e+03 -2.1454859e+03 -1.1849161e+04 
-4.9486177e+03 -2.0099971e+03 -1.1045967e+04 
-8.9986082e+02 4.8136440e+03 -7.3820636e+02 
-1.8529248e+03 9.5045582e+03 -1.5170575e+03 
-8.4047545e+03 -4.8021039e+03 1.5039879e+03 
-1.8749061e+03 9.3127418e+03 -1.4899068e+03 
-4.5878634e+03 3.1033848e+03 -5.2307707e+03 
-6.5497368e+03 -1.8814881e+03 -9.2737730e+03 
-1.8959634e+03 9.1207310e+03 -1.4623032e+03 
-6.2581554e+03 -1.8830996e+03 -9.5155926e+03 
-4.9507195e+03 -1.4695060e+03 8.5569826e+02 
-9.7617764e+03 -3.1143468e+03 1.6367049e+03 
-9.5296334e+03 -3.3669647e+03 1.6121183e+03 
-4.7456527e+03 -2.0119510e+03 -1.1163658e+04 
-5.9817197e+03 -1.8822295e+03 -9.7255274e+03 
-1.9168005e+03 8.9278006e+03 -1.4340841e+03 
-9.3018437e+03 -3.6044278e+03 1.5874658e+03 
-6.3572741e+03 -3.5236644e+03 -5.2122311e+03 
-5.7176907e+03 -1.8820646e+03 -9.9203231e+03 
-1.9381977e+03 8.7335127e+03 -1.4051502e+03 
-9.0778277e+03 -3.8267153e+03 1.5625444e+03 
-5.4658006e+03 -1.8822231e+03 -1.0098956e+04 
-1.9609469e+03 8.5374305e+03 -1.3754231e+03 
-8.8569127e+03 -4.0341040e+03 1.5372201e+03 
-4.5521128e+03 -2.0144415e+03 -1.1270181e+04 
-5.2255294e+03 -1.8827585e+03 -1.0262368e+04 
-8.6384360e+03 -4.2268137e+03 1.5113655e+03 
-1.9859094e+03 8.3393649e+03 -1.3448713e+03 
-4.9963712e+03 -1.8836803e+03 -1.0411332e+04 
-4.3675529e+03 -2.0178357e+03 -1.1368244e+04 
-8.4216721e+03 -4.4052775e+03 1.4849242e+03 
-2.0135386e+03 8.1373516e+03 -1.3132223e+03 
-4.7778108e+03 -1.8850172e+03 -1.0546679e+04 
-8.2064256e+03 -4.5680024e+03 1.4574733e+03 
-2.0479089e+03 7.9461845e+03 -1.2829915e+03 
-4.1905856e+03 -2.0192059e+03 -1.1442474e+04 
-4.5693287e+03 -1.8868068e+03 -1.0669265e+04 
-7.9879385e+03 -4.7313570e+03 1.4319463e+03 
-7.2981575e+02 4.6334227e+03 -7.0148615e+02 
-1.5138356e+03 9.1521430e+03 -1.4418899e+03 
-1.5391715e+03 8.9713116e+03 -1.4156089e+03 
-4.2148621e+03 3.0272465e+03 -5.0394757e+03 
-6.1471171e+03 -1.7610436e+03 -8.9564826e+03 
-4.7332140e+03 -1.4632324e+03 8.1731816e+02 
-9.3291933e+03 -3.0970620e+03 1.5624257e+03 
-5.8621028e+03 -1.7627121e+03 -9.1904241e+03 
-1.5633511e+03 8.7899181e+03 -1.3888792e+03 
-9.1018660e+03 -3.3429833e+03 1.5384875e+03 
-4.3704031e+03 -1.8890968e+03 -1.0779991e+04 
-5.5919313e+03 -1.7620826e+03 -9.3930649e+03 
-1.5870989e+03 8.6072577e+03 -1.3615387e+03 
-5.9574565e+03 -3.4227847e+03 -5.0425272e+03 
-8.8787214e+03 -3.5736655e+03 1.5144496e+03 
-5.3338871e+03 -1.7621583e+03 -9.5806388e+03 
-8.6591749e+03 -3.7890881e+03 1.4901132e+03 
-1.6112073e+03 8.4228854e+03 -1.3334832e+03 
-5.0876803e+03 -1.7625762e+03 -9.7521633e+03 
-8.4425581e+03 -3.9895003e+03 1.4653430e+03 
-4.1805087e+03 -1.8919194e+03 -1.0879567e+04 
-1.6364813e+03 8.2363628e+03 -1.3046304e+03 
-4.8527747e+03 -1.7633845e+03 -9.9085590e+03 
-8.2282119e+03 -4.1751014e+03 1.4400122e+03 
-1.6637949e+03 8.0474937e+03 -1.2749437e+03 
-4.6286479e+03 -1.7645901e+03 -1.0050585e+04 
-3.9991890e+03 -1.8956177e+03 -1.0970624e+04 
-8.0154147e+03 -4.3463001e+03 1.4140623e+03 
-1.6936181e+03 7.8543680e+03 -1.2441636e+03 
-4.4147697e+03 -1.7662180e+03 -1.0179056e+04 
-7.8039677e+03 -4.5016399e+03 1.3870916e+03 
-1.7300098e+03 7.6712904e+03 -1.2146411e+03 
-3.8250315e+03 -1.8974347e+03 -1.1038263e+04 
-4.2106062e+03 -1.7683018e+03 -1.0294809e+04 
-7.5891688e+03 -4.6569919e+03 1.3618608e+03 
-5.7124990e+02 4.4563148e+03 -6.6589610e+02 
-1.1976251e+03 8.8057672e+03 -1.3689904e+03 
-3.8632543e+03 2.9505447e+03 -4.8497481e+03 
-5.7650036e+03 -1.6455134e+03 -8.6401992e+03 
-4.5237605e+03 -1.4546109e+03 7.7979820e+02 
-1.2261721e+03 8.6356927e+03 -1.3435773e+03 
-8.9127665e+03 -3.0751803e+03 1.4898915e+03 
-5.4865092e+03 -1.6472210e+03 -8.8664808e+03 
-4.0156224e+03 -1.7708848e+03 -1.0398726e+04 
-8.6903501e+03 -3.3145179e+03 1.4666195e+03 
-1.2533239e+03 8.4646820e+03 -1.3177201e+03 
-5.5770928e+03 -3.3224036e+03 -4.8730982e+03 
-5.2225453e+03 -1.6468052e+03 -9.0620387e+03 
-8.4719740e+03 -3.5385375e+03 1.4432176e+03 
-1.2798269e+03 8.2920507e+03 -1.2912565e+03 
-4.9704216e+03 -1.6470924e+03 -9.2425959e+03 
-8.2570456e+03 -3.7472197e+03 1.4194907e+03 
-1.3064865e+03 8.1173477e+03 -1.2640778e+03 
-4.7298277e+03 -1.6477377e+03 -9.4072100e+03 
-8.0448988e+03 -3.9407873e+03 1.3953022e+03 
-3.8292808e+03 -1.7739963e+03 -1.0491502e+04 
-1.3341212e+03 7.9401335e+03 -1.2360979e+03 
-4.5002124e+03 -1.6487849e+03 -9.5567812e+03 
-7.8348749e+03 -4.1194200e+03 1.3705251e+03 
-1.3636185e+03 7.7602056e+03 -1.2072749e+03 
-4.2810390e+03 -1.6502383e+03 -9.6920536e+03 
-3.6511149e+03 -1.7779567e+03 -1.0575695e+04 
-7.6262536e+03 -4.2835030e+03 1.3450994e+03 
-1.3954662e+03 7.5757079e+03 -1.1773622e+03 
-4.0717634e+03 -1.6521199e+03 -9.8138242e+03 
-7.4188299e+03 -4.4316166e+03 1.3186427e+03 
-3.4796909e+03 -1.7801741e+03 -1.0636876e+04 
-1.4337060e+03 7.4004598e+03 -1.1485527e+03 
-3.8718397e+03 -1.6544597e+03 -9.9229125e+03 
-7.2079560e+03 -4.5791361e+03 1.2937490e+03 
-4.3221810e+03 -1.4436604e+03 7.4315717e+02 
-4.2376819e+02 4.2823282e+03 -6.3142704e+02 
-3.5322737e+03 2.8733490e+03 -4.6617387e+03 
-8.5121363e+03 -3.0487475e+03 1.4191353e+03 
-9.0350164e+02 8.4654500e+03 -1.2983418e+03 
-5.4026538e+03 -1.5348419e+03 -8.3252377e+03 
-3.6807212e+03 -1.6572967e+03 -1.0020181e+04 
-8.2947141e+03 -3.2816273e+03 1.3965453e+03 
-9.3511410e+02 8.3059100e+03 -1.2737946e+03 
-5.2156807e+03 -3.2225893e+03 -4.7041152e+03 
-5.1306443e+03 -1.5365733e+03 -8.5440737e+03 
-8.0812153e+03 -3.4991154e+03 1.3737988e+03 
-9.6508762e+02 8.1450538e+03 -1.2488077e+03 
-4.8728447e+03 -1.5363473e+03 -8.7327564e+03 
-7.8710373e+03 -3.7011940e+03 1.3507038e+03 
-9.9419117e+02 7.9822177e+03 -1.2232192e+03 
-4.6265921e+03 -1.5368199e+03 -8.9065001e+03 
-7.6635138e+03 -3.8880608e+03 1.3271221e+03 
-3.4978599e+03 -1.6606580e+03 -1.0106313e+04 
-1.0232434e+03 7.8169449e+03 -1.1969154e+03 
-4.3915566e+03 -1.5376642e+03 -9.0644016e+03 
-7.4579843e+03 -4.0598766e+03 1.3029265e+03 
-1.0530776e+03 7.6487953e+03 -1.1698069e+03 
-4.1671733e+03 -1.5389197e+03 -9.2073401e+03 
-3.3227820e+03 -1.6648424e+03 -1.0183792e+04 
-7.2537270e+03 -4.2170039e+03 1.2780547e+03 
-1.0845951e+03 7.4775610e+03 -1.1418467e+03 
-3.9528925e+03 -1.5405887e+03 -9.3360440e+03 
-7.0505279e+03 -4.3580599e+03 1.2521433e+03 
-1.1183022e+03 7.3014397e+03 -1.1128003e+03 
-3.7481583e+03 -1.5426903e+03 -9.4512934e+03 
-3.1540349e+03 -1.6674176e+03 -1.0238659e+04 
-6.8437927e+03 -4.4979263e+03 1.2276248e+03 
-1.1582225e+03 7.1337694e+03 -1.0847089e+03 
-3.5524136e+03 -1.5452513e+03 -9.5538902e+03 
-4.1282846e+03 -1.4304098e+03 7.0741171e+02 
-8.1269167e+03 -3.0178290e+03 1.3501858e+03 
-4.8727010e+03 -3.1234097e+03 -4.5357493e+03 
-3.2211657e+03 2.7957311e+03 -4.4755981e+03 
-5.0593366e+03 -1.4289694e+03 -8.0119135e+03 
-2.8698282e+02 4.1114731e+03 -5.9806964e+02 
-7.9145603e+03 -3.2443880e+03 1.3282919e+03 
-3.3651022e+03 -1.5483073e+03 -9.6446782e+03 
-6.3068792e+02 8.1312149e+03 -1.2299270e+03 
-4.7937873e+03 -1.4307118e+03 -8.2235146e+03 
-6.6521850e+02 7.9819923e+03 -1.2062425e+03 
-7.7060343e+03 -3.4554868e+03 1.3062183e+03 
-4.5421209e+03 -1.4306542e+03 -8.4055272e+03 
-6.9786241e+02 7.8310680e+03 -1.1821237e+03 
-7.5007238e+03 -3.6511097e+03 1.2837755e+03 
-4.3017028e+03 -1.4312892e+03 -8.5726589e+03 
-7.2941201e+02 7.6777992e+03 -1.1574078e+03 
-7.2979600e+03 -3.8314301e+03 1.2608233e+03 
-3.1856676e+03 -1.5518830e+03 -9.7243277e+03 
-4.0721850e+03 -1.4323071e+03 -8.7240448e+03 
-7.6069998e+02 7.5217240e+03 -1.1319772e+03 
-7.0970784e+03 -3.9965905e+03 1.2372344e+03 
-3.8529902e+03 -1.4337436e+03 -8.8605426e+03 
-7.9257474e+02 7.3624025e+03 -1.1057385e+03 
-3.0136297e+03 -1.5562570e+03 -9.7952503e+03 
-6.8973537e+03 -4.1469312e+03 1.2129440e+03 
-3.6435569e+03 -1.4355993e+03 -8.9828652e+03 
-8.2595216e+02 7.1996212e+03 -1.0786400e+03 
-6.6985603e+03 -4.2811066e+03 1.1876067e+03 
-3.4433185e+03 -1.4378905e+03 -9.0917753e+03 
-8.6135780e+02 7.0316324e+03 -1.0504588e+03 
-2.8475202e+03 -1.5591509e+03 -9.8439554e+03 
-6.4961564e+03 -4.4135068e+03 1.1634992e+03 
-3.2517085e+03 -1.4406416e+03 -9.1880574e+03 
-9.0279589e+02 6.8712965e+03 -1.0230911e+03 
-3.9418685e+03 -1.4148975e+03 6.7257643e+02 
-4.5476196e+03 -3.0249323e+03 -4.3681710e+03 
-7.7566986e+03 -2.9825077e+03 1.2830678e+03 
-3.0681626e+03 -1.4438848e+03 -9.2725369e+03 
-7.5494690e+03 -3.2028933e+03 1.2618824e+03 
-2.9291875e+03 2.7177650e+03 -4.2914766e+03 
-4.7343314e+03 -1.3278318e+03 -7.7005429e+03 
-1.6051280e+02 3.9437621e+03 -5.6581431e+02 
-3.7842046e+02 7.8030898e+03 -1.1637280e+03 
-4.4752270e+03 -1.3295747e+03 -7.9051165e+03 
-7.3459986e+03 -3.4077547e+03 1.2404972e+03 
-4.1571979e+02 7.6639715e+03 -1.1409029e+03 
-4.2296728e+03 -1.3296669e+03 -8.0806612e+03 
-7.1456582e+03 -3.5970793e+03 1.2187246e+03 
-4.5088190e+02 7.5227616e+03 -1.1176489e+03 
-3.9950642e+03 -1.3304439e+03 -8.2413805e+03 
-4.8472328e+02 7.3788379e+03 -1.0938031e+03 
-6.9477749e+03 -3.7710167e+03 1.1964228e+03 
-2.8921169e+03 -1.4476428e+03 -9.3458717e+03 
-3.7710357e+03 -1.3316128e+03 -8.3864471e+03 
-5.1809113e+02 7.2317340e+03 -1.0692433e+03 
-6.7516781e+03 -3.9296918e+03 1.1734634e+03 
-3.5569989e+03 -1.3332059e+03 -8.5166968e+03 
-5.5184953e+02 7.0810104e+03 -1.0438727e+03 
-2.7230872e+03 -1.4521751e+03 -9.4104020e+03 
-6.5566368e+03 -4.0734230e+03 1.1497796e+03 
-3.3523815e+03 -1.3352222e+03 -8.6328264e+03 
-5.8692942e+02 6.9264488e+03 -1.0176349e+03 
-6.3624113e+03 -4.2009021e+03 1.1250429e+03 
-3.1566075e+03 -1.3376760e+03 -8.7355815e+03 
-6.2387642e+02 6.7663556e+03 -9.9031817e+02 
-2.5595916e+03 -1.4553516e+03 -9.4531039e+03 
-6.1645121e+03 -4.3260303e+03 1.1013798e+03 
-2.9691022e+03 -1.3405891e+03 -8.8257292e+03 
-6.6667387e+02 6.6131182e+03 -9.6367976e+02 
-4.2398904e+03 -2.9272243e+03 -4.2015510e+03 
-3.7627205e+03 -1.3971711e+03 6.3866396e+02 
-7.4010539e+03 -2.9428840e+03 1.2178023e+03 
-2.7892945e+03 -1.3439906e+03 -8.9040763e+03 
-7.1990018e+03 -3.1572516e+03 1.1973360e+03 
-2.6556072e+03 2.6395263e+03 -4.1095240e+03 
-4.4269285e+03 -1.2313610e+03 -7.3914421e+03 
-7.0006580e+03 -3.3560364e+03 1.1766527e+03 
-4.1742615e+03 -1.2330959e+03 -7.5891923e+03 
-4.3983620e+01 3.7792095e+03 -5.3465121e+02 
-1.4594879e+02 7.4811058e+03 -1.0997267e+03 
-3.9348077e+03 -1.2333217e+03 -7.7584686e+03 
-6.8053773e+03 -3.5392282e+03 1.1555665e+03 
-1.8586552e+02 7.3518828e+03 -1.0777566e+03 
-2.2339267e+02 7.2201742e+03 -1.0553639e+03 
-3.7059931e+03 -1.2342227e+03 -7.9129737e+03 
-6.6124807e+03 -3.7069539e+03 1.1339335e+03 
-2.6166145e+03 -1.3479020e+03 -8.9712691e+03 
-2.5937152e+02 7.0853784e+03 -1.0323849e+03 
-3.4874362e+03 -1.2355226e+03 -8.0519164e+03 
-6.4212898e+03 -3.8593212e+03 1.1116246e+03 
-2.9466426e+02 6.9470250e+03 -1.0086932e+03 
-3.2785382e+03 -1.2372505e+03 -8.1761107e+03 
-2.4505751e+03 -1.3525640e+03 -9.0295772e+03 
-3.3015111e+02 6.8046753e+03 -9.8418867e+02 
-6.2310660e+03 -3.9966271e+03 1.0885703e+03 
-3.0787170e+03 -1.2394044e+03 -8.2862368e+03 
-3.6677850e+02 6.6581066e+03 -9.5881060e+02 
-6.0415537e+03 -4.1176006e+03 1.0644584e+03 
-2.8873883e+03 -1.2419963e+03 -8.3830231e+03 
-2.2896835e+03 -1.3559898e+03 -9.0664410e+03 
-4.0511281e+02 6.5056791e+03 -9.3235740e+02 
-5.8483152e+03 -4.2356567e+03 1.0412708e+03 
-2.7039704e+03 -1.2450459e+03 -8.4672193e+03 
-4.4911506e+02 6.3593118e+03 -9.0645401e+02 
-3.9489568e+03 -2.8303523e+03 -4.0360589e+03 
-3.5906205e+03 -1.3772861e+03 6.0568511e+02 
-7.0595390e+03 -2.8990733e+03 1.1544065e+03 
-6.8627052e+03 -3.1075863e+03 1.1346682e+03 
-2.5278862e+03 -1.2485798e+03 -8.5396141e+03 
-2.3997038e+03 2.5610930e+03 -3.9298892e+03 
-6.6695478e+03 -3.3004621e+03 1.1146986e+03 
-4.1364286e+03 -1.1394842e+03 -7.0849271e+03 
-3.8901984e+03 -1.1412050e+03 -7.2760551e+03 
6.2973063e+01 3.6178315e+03 -5.0457010e+02 
-6.4794038e+03 -3.4776939e+03 1.0943130e+03 
6.7465161e+01 7.1652970e+03 -1.0379043e+03 
-3.6568405e+03 -1.1415500e+03 -7.4392601e+03 
2.5084392e+01 7.0457635e+03 -1.0167840e+03 
-6.2915865e+03 -3.6393860e+03 1.0733653e+03 
-2.3585615e+03 -1.2526181e+03 -8.6008421e+03 
-3.4338133e+03 -1.1425593e+03 -7.5877471e+03 
-1.4653592e+01 6.9233470e+03 -9.9524815e+02 
-5.2615463e+01 6.7974666e+03 -9.7313209e+02 
-3.2207194e+03 -1.1439727e+03 -7.7207608e+03 
-6.1054082e+03 -3.7856293e+03 1.0517256e+03 
-8.9678801e+01 6.6676482e+03 -9.5030544e+02 
-3.0169508e+03 -1.1458163e+03 -7.8390922e+03 
-2.1955071e+03 -1.2573841e+03 -8.6531032e+03 
-5.9201210e+03 -3.9166999e+03 1.0293217e+03 
-1.2674036e+02 6.5334540e+03 -9.2666477e+02 
-2.8219165e+03 -1.1480869e+03 -7.9434052e+03 
-5.7354512e+03 -4.0313639e+03 1.0058567e+03 
-1.6476246e+02 6.3946574e+03 -9.0214504e+02 
-2.6350249e+03 -1.1507950e+03 -8.0344105e+03 
-2.0372220e+03 -1.2610282e+03 -8.6842994e+03 
-2.0433283e+02 6.2496724e+03 -8.7655450e+02 
-5.5470130e+03 -4.1425531e+03 9.8317381e+02 
-2.4556879e+03 -1.1539583e+03 -8.1128405e+03 
-2.4938866e+02 6.1099541e+03 -8.5139187e+02 
-3.6742546e+03 -2.7343826e+03 -3.8718640e+03 
-3.4253419e+03 -1.3553060e+03 5.7364887e+02 
-6.7316975e+03 -2.8512062e+03 1.0928942e+03 
-6.5401138e+03 -3.0540337e+03 1.0738911e+03 
-2.2833240e+03 -1.1576011e+03 -8.1794660e+03 
-6.3521920e+03 -3.2411747e+03 1.0546450e+03 
-2.1607670e+03 2.4825447e+03 -3.7527203e+03 
-3.8621431e+03 -1.0521245e+03 -6.7813132e+03 
-3.6223545e+03 -1.0538267e+03 -6.9660172e+03 
-6.1672499e+03 -3.4126250e+03 1.0349723e+03 
1.6071973e+02 3.4596458e+03 -4.7556041e+02 
-3.3950946e+03 -1.0542787e+03 -7.1233455e+03 
2.6254763e+02 6.8557004e+03 -9.7824107e+02 
2.1785813e+02 6.7456530e+03 -9.5796460e+02 
-5.9845920e+03 -3.5684673e+03 1.0147245e+03 
-2.1173552e+03 -1.1617424e+03 -8.2349101e+03 
-3.1778551e+03 -1.0553829e+03 -7.2660092e+03 
1.7606457e+02 6.6323229e+03 -9.3728051e+02 
-2.9702236e+03 -1.0568943e+03 -7.3932874e+03 
-5.8035194e+03 -3.7087760e+03 9.9377071e+02 
1.3627434e+02 6.5151494e+03 -9.1602295e+02 
9.7594154e+01 6.3936550e+03 -8.9405769e+02 
-2.7715835e+03 -1.0588365e+03 -7.5059484e+03 
-1.9572917e+03 -1.1665888e+03 -8.2813039e+03 
-5.6232735e+03 -3.8338064e+03 9.7203593e+02 
5.9110371e+01 6.2674035e+03 -8.7127813e+02 
-2.5813358e+03 -1.0612054e+03 -7.6046390e+03 
-5.4435610e+03 -3.9423615e+03 9.4923810e+02 
1.9844481e+01 6.1361643e+03 -8.4761512e+02 
-1.8016262e+03 -1.1704225e+03 -8.3070077e+03 
-2.3988823e+03 -1.0640101e+03 -7.6900525e+03 
-5.2600477e+03 -4.0468936e+03 9.2708695e+02 
-2.0813162e+01 5.9984048e+03 -8.2288617e+02 
-2.2236297e+03 -1.0672665e+03 -7.7629036e+03 
-3.4152131e+03 -2.6393811e+03 -3.7091345e+03 
-6.6774345e+01 5.8651215e+03 -7.9846992e+02 
-3.2666536e+03 -1.3313015e+03 5.4256253e+02 
-6.4170636e+03 -2.7994266e+03 1.0332758e+03 
-6.2307527e+03 -2.9967431e+03 1.0150132e+03 
-2.0549924e+03 -1.0709969e+03 -7.8239454e+03 
-6.0481058e+03 -3.1783283e+03 9.9649886e+02 
-1.9380976e+03 2.4039630e+03 -3.5781640e+03 
-3.6033942e+03 -9.6920075e+02 -6.4809145e+03 
-5.8684199e+03 -3.3441808e+03 9.7754940e+02 
-3.3700564e+03 -9.7088135e+02 -6.6593900e+03 
-3.1489020e+03 -9.7143011e+02 -6.8110338e+03 
2.4961322e+02 3.3046712e+03 -4.4761110e+02 
-5.6909892e+03 -3.4943618e+03 9.5801415e+02 
-1.8923902e+03 -1.0752193e+03 -7.8737895e+03 
4.4001344e+02 6.5523550e+03 -9.2071670e+02 
3.9317242e+02 6.4515924e+03 -9.0127714e+02 
-2.9374564e+03 -9.7261752e+02 -6.9480671e+03 
3.4947956e+02 6.3471459e+03 -8.8143881e+02 
-5.5151028e+03 -3.6289297e+03 9.3776100e+02 
-2.7352934e+03 -9.7421356e+02 -7.0698025e+03 
3.0801591e+02 6.2384744e+03 -8.6103454e+02 
-1.7353331e+03 -1.0801246e+03 -7.9144994e+03 
-5.3399899e+03 -3.7481191e+03 9.1671226e+02 
2.6787217e+02 6.1250975e+03 -8.3992642e+02 
-2.5417880e+03 -9.7623932e+02 -7.1769851e+03 
2.2811755e+02 6.0065806e+03 -8.1800476e+02 
-2.3563344e+03 -9.7869014e+02 -7.2702445e+03 
-5.1653357e+03 -3.8507698e+03 8.9459974e+02 
-1.5823099e+03 -1.0841211e+03 -7.9348898e+03 
1.8775709e+02 5.8826897e+03 -7.9519647e+02 
-2.1783280e+03 -9.8157386e+02 -7.3502560e+03 
-4.9868582e+03 -3.9488582e+03 8.7300557e+02 
1.4615877e+02 5.7519448e+03 -7.7132779e+02 
-2.0071714e+03 -9.8490483e+02 -7.4177170e+03 
-3.1712575e+03 -2.5454129e+03 -3.5480375e+03 
9.9437800e+01 5.6248895e+03 -7.4766333e+02 
-3.1143206e+03 -1.3053499e+03 5.1243173e+02 
-6.1151647e+03 -2.7438912e+03 9.7555827e+02 
-5.9341410e+03 -2.9358753e+03 9.5804009e+02 
-1.8422759e+03 -9.8870358e+02 -7.4733626e+03 
-5.7567986e+03 -3.1120878e+03 9.4026372e+02 
-1.7310069e+03 2.3254309e+03 -3.4063652e+03 
-5.5824125e+03 -3.2725301e+03 9.2204605e+02 
-3.3595147e+03 -8.9062718e+02 -6.1840437e+03 
-3.1326407e+03 -8.9228495e+02 -6.3564835e+03 
-2.9176032e+03 -8.9292178e+02 -6.5026325e+03 
-5.4102659e+03 -3.4172422e+03 9.0323408e+02 
-1.6830594e+03 -9.9298709e+02 -7.5177934e+03 
3.3000493e+02 3.1529277e+03 -4.2071067e+02 
6.0056642e+02 6.2553019e+03 -8.6530990e+02 
-2.7119628e+03 -8.9418251e+02 -6.6342265e+03 
5.5173285e+02 6.1636243e+03 -8.4669933e+02 
-5.2396342e+03 -3.5462667e+03 8.8369448e+02 
5.0629797e+02 6.0678606e+03 -8.2769989e+02 
-2.5152797e+03 -8.9585152e+02 -6.7506106e+03 
4.6331607e+02 5.9674893e+03 -8.0814293e+02 
-1.5290329e+03 -9.9793168e+02 -7.5530058e+03 
-5.0697334e+03 -3.6598179e+03 8.6334675e+02 
-2.3269215e+03 -8.9794773e+02 -6.8525062e+03 
4.2186167e+02 5.8620274e+03 -7.8788700e+02 
3.8098660e+02 5.7510418e+03 -7.6681944e+02 
-2.1462758e+03 -9.0046598e+02 -6.9405254e+03 
-4.9002259e+03 -3.7567717e+03 8.4193589e+02 
-1.3786834e+03 -1.0020660e+03 -7.5682649e+03 
3.3967929e+02 5.6342953e+03 -7.4486341e+02 
-1.9727328e+03 -9.0341300e+02 -7.0153254e+03 
-4.7268818e+03 -3.8486332e+03 8.2092206e+02 
2.9728488e+02 5.5103602e+03 -7.2185332e+02 
-1.8056911e+03 -9.0680185e+02 -7.0775861e+03 
-2.9418101e+03 -2.4525427e+03 -3.3887389e+03 
2.4994732e+02 5.3893326e+03 -6.9894575e+02 
-2.9681061e+03 -1.2775347e+03 4.8326052e+02 
-5.8255238e+03 -2.6847684e+03 9.1974553e+02 
-5.6497937e+03 -2.8716018e+03 9.0297383e+02 
-1.6445598e+03 -9.1065139e+02 -7.1280248e+03 
-5.4777762e+03 -3.0426281e+03 8.8594006e+02 
-5.3087239e+03 -3.1978508e+03 8.6846090e+02 
-1.5388173e+03 2.2470330e+03 -3.2374675e+03 
-3.1298488e+03 -8.1631387e+02 -5.8910114e+03 
-2.9094539e+03 -8.1794892e+02 -6.0576057e+03 
-1.4887558e+03 -9.1497793e+02 -7.1672309e+03 
-5.1419073e+03 -3.3372895e+03 8.5038112e+02 
-2.7005481e+03 -8.1866668e+02 -6.1984471e+03 
4.0224102e+02 3.0044364e+03 -3.9484709e+02 
7.4489973e+02 5.9645835e+03 -8.1199840e+02 
-2.5007280e+03 -8.1999245e+02 -6.3247911e+03 
6.9423422e+02 5.8817919e+03 -7.9420791e+02 
-4.9765876e+03 -3.4609709e+03 8.3156607e+02 
6.4721546e+02 5.7945124e+03 -7.7603955e+02 
-2.3095408e+03 -8.2172445e+02 -6.4360139e+03 
-1.3377917e+03 -9.1994374e+02 -7.1971345e+03 
6.0287071e+02 5.7022422e+03 -7.5732303e+02 
-4.8119662e+03 -3.5690893e+03 8.1193251e+02 
-2.1263472e+03 -8.2387963e+02 -6.5328132e+03 
5.6025813e+02 5.6044960e+03 -7.3791357e+02 
-4.6476817e+03 -3.6605563e+03 7.9123786e+02 
-1.9505288e+03 -8.2645248e+02 -6.6157829e+03 
5.1841204e+02 5.5008427e+03 -7.1769565e+02 
-1.1901546e+03 -9.2419239e+02 -7.2074468e+03 
-1.7814711e+03 -8.2944880e+02 -6.6855622e+03 
4.7630415e+02 5.3910417e+03 -6.9658886e+02 
-4.4795567e+03 -3.7464104e+03 7.7082594e+02 
4.3325644e+02 5.2737172e+03 -6.7443528e+02 
-1.6185694e+03 -8.3288048e+02 -6.7428131e+03 
-2.7262927e+03 -2.3608344e+03 -3.2314029e+03 
3.8544330e+02 5.1585239e+03 -6.5228926e+02 
-2.8277722e+03 -1.2479455e+03 4.5505142e+02 
-5.5476625e+03 -2.6222376e+03 8.6583844e+02 
-5.3772242e+03 -2.8041042e+03 8.4981365e+02 
-1.4612312e+03 -8.3676493e+02 -6.7882350e+03 
-5.2105436e+03 -2.9701330e+03 8.3352529e+02 
-5.0468492e+03 -3.1203292e+03 8.1678958e+02 
-1.3608626e+03 2.1688555e+03 -3.0716120e+03 
-2.9137524e+03 -7.4616667e+02 -5.6021257e+03 
-2.6998533e+03 -7.4778033e+02 -5.7630619e+03 
-4.8853986e+03 -3.2546920e+03 7.9944908e+02 
-1.3088731e+03 -8.4111787e+02 -6.8224065e+03 
-2.4970964e+03 -7.4857331e+02 -5.8987807e+03 
-2.3031146e+03 -7.4995727e+02 -6.0200619e+03 
-4.7254372e+03 -3.3732328e+03 7.8136779e+02 
4.6666253e+02 2.8592190e+03 -3.7000781e+02 
8.7369617e+02 5.6802437e+03 -7.6075894e+02 
8.2136075e+02 5.6061393e+03 -7.4377853e+02 
-2.1174426e+03 -7.5174376e+02 -6.1263121e+03 
7.7291701e+02 5.5271464e+03 -7.2643241e+02 
-1.1610098e+03 -8.4608834e+02 -6.8471920e+03 
-4.5661517e+03 -3.4761259e+03 7.6245972e+02 
7.2736490e+02 5.4427804e+03 -7.0854855e+02 
-1.9394351e+03 -7.5394795e+02 -6.2182046e+03 
6.8374617e+02 5.3525540e+03 -6.8997902e+02 
-4.4071550e+03 -3.5623183e+03 7.4249407e+02 
-1.7684678e+03 -7.5656408e+02 -6.2963151e+03 
6.4107753e+02 5.2560378e+03 -6.7060555e+02 
-1.0161304e+03 -8.5042927e+02 -6.8527438e+03 
-4.2443229e+03 -3.6423865e+03 7.2270386e+02 
-1.6039222e+03 -7.5959720e+02 -6.3612641e+03 
5.9831397e+02 5.1529884e+03 -6.5034434e+02 
-1.4451910e+03 -7.6305816e+02 -6.4136959e+03 
-2.5241272e+03 -2.2703509e+03 -3.0761923e+03 
5.5475401e+02 5.0420810e+03 -6.2904464e+02 
-2.6930815e+03 -1.2166770e+03 4.2780545e+02 
-5.2811026e+03 -2.5564882e+03 8.1383490e+02 
5.0660429e+02 4.9325349e+03 -6.0766434e+02 
-5.1159471e+03 -2.7335734e+03 7.9855579e+02 
-1.2916803e+03 -7.6696309e+02 -6.4542920e+03 
-4.9546066e+03 -2.8947948e+03 7.8301391e+02 
-4.7962853e+03 -3.0401589e+03 7.6702480e+02 
-1.1964878e+03 2.0909854e+03 -2.9089376e+03 
-2.7105929e+03 -6.8008725e+02 -5.3176916e+03 
-4.6402267e+03 -3.1696450e+03 7.5042885e+02 
-1.1428071e+03 -7.7132719e+02 -6.4836198e+03 
-2.5032075e+03 -6.8168198e+02 -5.4731548e+03 
-2.3066178e+03 -6.8254570e+02 -5.6039333e+03 
-4.4856601e+03 -3.2832492e+03 7.3308872e+02 
-2.1184943e+03 -6.8398231e+02 -5.7203369e+03 
5.2360553e+02 2.7172978e+03 -3.4617974e+02 
9.8762836e+02 5.4023270e+03 -7.1156714e+02 
9.3378633e+02 5.3367109e+03 -6.9538572e+02 
-1.9383596e+03 -6.8581612e+02 -5.8218014e+03 
-9.9808857e+02 -7.7628705e+02 -6.5034790e+03 
-4.3317559e+03 -3.3811259e+03 7.1491572e+02 
8.8407704e+02 5.2658078e+03 -6.7885195e+02 
8.3747303e+02 5.1891508e+03 -6.6179199e+02 
-1.7655625e+03 -6.8806072e+02 -5.9089754e+03 
-4.1781011e+03 -3.4622572e+03 6.9569014e+02 
7.9299962e+02 5.1062508e+03 -6.4405493e+02 
-1.5994739e+03 -6.9071022e+02 -5.9824160e+03 
-8.5601807e+02 -7.8069951e+02 -6.5044579e+03 
7.4965592e+02 5.0166804e+03 -6.2551989e+02 
-4.0206249e+03 -3.5367630e+03 6.7653971e+02 
-1.4394713e+03 -6.9376899e+02 -6.0427250e+03 
7.0638019e+02 4.9201932e+03 -6.0609990e+02 
-2.3347379e+03 -2.1811544e+03 -2.9232678e+03 
-1.2849452e+03 -6.9724703e+02 -6.0905282e+03 
6.6244735e+02 4.8155146e+03 -5.8565086e+02 
-2.5637976e+03 -1.1838288e+03 4.0152223e+02 
-5.0253687e+03 -2.4877189e+03 7.6372996e+02 
-4.8654796e+03 -2.6602086e+03 7.4919363e+02 
-1.1353010e+03 -7.0115929e+02 -6.1264895e+03 
6.1409813e+02 4.7114353e+03 -5.6503984e+02 
-4.7094746e+03 -2.8168133e+03 7.3439755e+02 
-4.5565326e+03 -2.9575406e+03 7.1915642e+02 
-1.0450498e+03 2.0135110e+03 -2.7495807e+03 
-2.5197506e+03 -6.1797326e+02 -5.0380106e+03 
-4.4058826e+03 -3.0823500e+03 7.0330853e+02 
-9.8995649e+02 -7.0552058e+02 -6.1511650e+03 
-2.3188963e+03 -6.1955248e+02 -5.1881832e+03 
-2.1284928e+03 -6.2048361e+02 -5.3142012e+03 
-4.2567372e+03 -3.1912223e+03 6.8671518e+02 
-1.9462487e+03 -6.2196848e+02 -5.4259102e+03 
5.7340122e+02 2.5786956e+03 -3.2334916e+02 
1.0873590e+03 5.1308788e+03 -6.6439752e+02 
-8.4843187e+02 -7.1045574e+02 -6.1662906e+03 
-1.7716749e+03 -6.2384366e+02 -5.5227743e+03 
1.0321746e+03 5.0735512e+03 -6.4900284e+02 
-4.1082499e+03 -3.2842927e+03 6.6928506e+02 
9.8135957e+02 5.0105412e+03 -6.3327042e+02 
-1.6041152e+03 -6.2612128e+02 -5.6054167e+03 
9.3385889e+02 4.9413995e+03 -6.1702455e+02 
-3.9599804e+03 -3.3605774e+03 6.5080892e+02 
8.8868157e+02 4.8656349e+03 -6.0011153e+02 
-1.4429353e+03 -6.2879543e+02 -5.6743757e+03 
-7.0922631e+02 -7.1492012e+02 -6.1628846e+03 
8.4480917e+02 4.7828221e+03 -5.8240805e+02 
-3.8079125e+03 -3.4297454e+03 6.3231466e+02 
-1.2875098e+03 -6.3186994e+02 -5.7302337e+03 
8.0116337e+02 4.6927120e+03 -5.6382410e+02 
-2.1575525e+03 -2.0933060e+03 -2.7727878e+03 
-1.1372271e+03 -6.3535404e+02 -5.7735985e+03 
7.5699533e+02 4.5940792e+03 -5.4422180e+02 
-2.4396866e+03 -1.1495052e+03 3.7619998e+02 
-4.7799903e+03 -2.4161368e+03 7.1551592e+02 
-4.6253440e+03 -2.5842166e+03 7.0171778e+02 
-9.9149226e+02 -6.3926168e+02 -5.8051157e+03 
7.0858180e+02 4.4952927e+03 -5.2438290e+02 
-4.4746620e+03 -2.7363955e+03 6.8766512e+02 
-4.3270970e+03 -2.8726812e+03 6.7317158e+02 
-9.0591740e+02 1.9365214e+03 -2.5936745e+03 
-4.1818634e+03 -2.9930139e+03 6.5807346e+02 
-8.4972437e+02 -6.4360730e+02 -5.8253304e+03 
-2.3406182e+03 -5.5971842e+02 -4.7633801e+03 
-2.1463117e+03 -5.6128640e+02 -4.9084419e+03 
-1.9621132e+03 -5.6228259e+02 -5.0298766e+03 
-4.0381559e+03 -3.0973595e+03 6.4223075e+02 
-1.7857699e+03 -5.6381237e+02 -5.1370720e+03 
6.1637605e+02 2.4434357e+03 -3.0150179e+02 
-7.1144691e+02 -6.4850472e+02 -5.8359152e+03 
-3.8951109e+03 -3.1858338e+03 6.2554958e+02 
1.1735412e+03 4.8659448e+03 -6.1922342e+02 
-1.6167818e+03 -5.6572402e+02 -5.2295187e+03 
1.1171793e+03 4.8167042e+03 -6.0460206e+02 
1.0654183e+03 4.7613907e+03 -5.8965884e+02 
-1.4544874e+03 -5.6802837e+02 -5.3078148e+03 
-3.7522604e+03 -3.2574868e+03 6.0783058e+02 
1.0171757e+03 4.6995710e+03 -5.7421615e+02 
9.7144437e+02 4.6307527e+03 -5.5811772e+02 
-5.7516668e+02 -6.5300248e+02 -5.8283124e+03 
-1.2982485e+03 -5.7071956e+02 -5.3724789e+03 
-3.6056428e+03 -3.3215429e+03 5.9000714e+02 
9.2718838e+02 4.5545125e+03 -5.4123794e+02 
-1.1474366e+03 -5.7380099e+02 -5.4240741e+03 
8.8331303e+02 4.4705984e+03 -5.2348399e+02 
-1.9920034e+03 -2.0068657e+03 -2.6249086e+03 
-1.0014384e+03 -5.7728124e+02 -5.4631897e+03 
8.3904573e+02 4.3778335e+03 -5.0472374e+02 
-2.3205180e+03 -1.1138146e+03 3.5183557e+02 
-4.5445032e+03 -2.3419568e+03 6.6918240e+02 
-4.3950696e+03 -2.5058113e+03 6.5611623e+02 
-8.5965889e+02 -5.8117334e+02 -5.4904529e+03 
7.9070118e+02 4.2841723e+03 -4.8565902e+02 
-4.2496903e+03 -2.6537541e+03 6.4280285e+02 
-4.1074919e+03 -2.7857929e+03 6.2905475e+02 
-3.9676732e+03 -2.9018485e+03 6.1470635e+02 
-7.2151888e+02 -5.8549144e+02 -5.5063976e+03 
-7.7847221e+02 1.8601062e+03 -2.4413492e+03 
-2.1726021e+03 -5.0521272e+02 -4.4940927e+03 
-1.9848585e+03 -5.0677443e+02 -4.6342210e+03 
-3.8294113e+03 -3.0018722e+03 5.9961636e+02 
-1.8068827e+03 -5.0783420e+02 -4.7512470e+03 
-1.6364612e+03 -5.0940644e+02 -4.8541071e+03 
-5.8654537e+02 -5.9033904e+02 -5.5126341e+03 
-3.6918246e+03 -3.0859606e+03 5.8368849e+02 
6.5285181e+02 2.3115413e+03 -2.8062273e+02 
-1.4730834e+03 -5.1135059e+02 -4.9423175e+03 
1.2468181e+03 4.6075706e+03 -5.7601697e+02 
1.1894441e+03 4.5662138e+03 -5.6215431e+02 
1.1368967e+03 4.5183990e+03 -5.4798696e+02 
-1.3160835e+03 -5.1367634e+02 -5.0164505e+03 
-3.5544166e+03 -3.1531970e+03 5.6673263e+02 
1.0880663e+03 4.4637087e+03 -5.3333541e+02 
-4.5325451e+02 -5.9485261e+02 -5.5010222e+03 
-1.1648189e+03 -5.1637794e+02 -5.0770049e+03 
1.0419296e+03 4.4016491e+03 -5.1804102e+02 
-3.4132815e+03 -3.2123677e+03 5.4959300e+02 
9.9743368e+02 4.3317990e+03 -5.0197607e+02 
-1.0186587e+03 -5.1945844e+02 -5.1245240e+03 
-1.8375294e+03 -1.9218922e+03 -2.4797834e+03 
9.5346760e+02 4.2539036e+03 -4.8504513e+02 
-8.7698804e+02 -5.2292587e+02 -5.1595783e+03 
9.0923510e+02 4.1668336e+03 -4.6712139e+02 
-2.2060655e+03 -1.0768692e+03 3.2842459e+02 
-4.3184522e+03 -2.2654007e+03 6.2471645e+02 
-4.1741942e+03 -2.4252127e+03 6.1237436e+02 
-7.3921243e+02 -5.2679247e+02 -5.1827766e+03 
-4.0340900e+03 -2.5691078e+03 5.9979440e+02 
8.6109087e+02 4.0781364e+03 -4.4883200e+02 
-3.8972396e+03 -2.6970928e+03 5.8678783e+02 
-3.7628260e+03 -2.8090698e+03 5.7318731e+02 
-6.0475430e+02 -5.3107214e+02 -5.1946413e+03 
-6.6210854e+02 1.7843555e+03 -2.2927314e+03 
-2.0151228e+03 -4.5434257e+02 -4.2304357e+03 
-1.8339547e+03 -4.5590355e+02 -4.3658054e+03 
-3.6300080e+03 -2.9049755e+03 5.5885039e+02 
-1.6622176e+03 -4.5702616e+02 -4.4785945e+03 
-1.4977377e+03 -4.5863917e+02 -4.5772952e+03 
-4.7314444e+02 -5.3585870e+02 -5.1967213e+03 
-3.4978862e+03 -2.9848878e+03 5.4367842e+02 
-1.3399945e+03 -4.6061267e+02 -4.6614481e+03 
6.8314569e+02 2.1830359e+03 -2.6069645e+02 
1.3078239e+03 4.3558019e+03 -5.3474910e+02 
1.2496028e+03 4.3221229e+03 -5.2162929e+02 
-3.3659348e+03 -3.0479224e+03 5.2749005e+02 
-1.1883178e+03 -4.6295532e+02 -4.7315991e+03 
1.1964281e+03 4.2816079e+03 -5.0822327e+02 
1.1471629e+03 4.2338540e+03 -4.9434961e+02 
-3.4291003e+02 -5.4037140e+02 -5.1812869e+03 
-1.0420615e+03 -4.6566155e+02 -4.7882270e+03 
1.1007682e+03 4.1783665e+03 -4.7984759e+02 
-3.2303047e+03 -3.1024344e+03 5.1104549e+02 
1.0561742e+03 4.1147263e+03 -4.6458751e+02 
-9.0059201e+02 -4.6873415e+02 -4.8318549e+03 
-1.6935764e+03 -1.8384429e+03 -2.3375630e+03 
1.0122543e+03 4.0426759e+03 -4.4847157e+02 
-7.6329365e+02 -4.7218067e+02 -4.8630342e+03 
9.6818859e+02 3.9611327e+03 -4.3137787e+02 
-2.0961078e+03 -1.0387845e+03 3.0596137e+02 
-4.1013918e+03 -2.1866965e+03 5.8210264e+02 
-3.9622661e+03 -2.3426461e+03 5.7047509e+02 
-6.2957214e+02 -4.7601266e+02 -4.8823552e+03 
-3.8274022e+03 -2.4826796e+03 5.5862098e+02 
9.2037392e+02 3.8772444e+03 -4.1386399e+02 
-3.6958732e+03 -2.6068020e+03 5.4635025e+02 
-3.5668463e+03 -2.7148972e+03 5.3349402e+02 
-4.9885199e+02 -4.8024381e+02 -4.8903287e+03 
-5.5623409e+02 1.7093595e+03 -2.1479438e+03 
-1.8676151e+03 -4.0699099e+02 -3.9726906e+03 
-1.6930321e+03 -4.0855722e+02 -4.1034739e+03 
-3.4394618e+03 -2.8068875e+03 5.1990872e+02 
-1.5275471e+03 -4.0974252e+02 -4.2121951e+03 
-1.3690270e+03 -4.1139528e+02 -4.3069097e+03 
-3.7066781e+02 -4.8495891e+02 -4.8884427e+03 
-3.3128022e+03 -2.8828323e+03 5.0549353e+02 
-1.2169412e+03 -4.1339566e+02 -4.3871811e+03 
7.0757035e+02 2.0579430e+03 -2.4170683e+02 
1.3571830e+03 4.1106839e+03 -4.9538950e+02 
-3.1863120e+03 -2.9418793e+03 4.9007531e+02 
1.2982797e+03 4.0844737e+03 -4.8299547e+02 
-1.0706159e+03 -4.1575144e+02 -4.4535290e+03 
1.2446356e+03 4.0510574e+03 -4.7033498e+02 
-2.4355937e+02 -4.8945495e+02 -4.8693709e+03 
1.1950872e+03 4.0100463e+03 -4.5722475e+02 
-9.2940162e+02 -4.1845729e+02 -4.5064114e+03 
-3.0561998e+03 -2.9919597e+03 4.7433536e+02 
1.1485800e+03 3.9609450e+03 -4.4350222e+02 
-7.9266248e+02 -4.2151578e+02 -4.5463310e+03 
1.1040279e+03 3.9033365e+03 -4.2903593e+02 
-1.5595991e+03 -1.7565733e+03 -2.1983946e+03 
1.0602888e+03 3.8369608e+03 -4.1372588e+02 
-6.5978181e+02 -4.2493409e+02 -4.5738198e+03 
1.0165198e+03 3.7607805e+03 -3.9745475e+02 
-1.9904296e+03 -9.9967915e+02 2.8443902e+02 
-3.8928887e+03 -2.1060778e+03 5.4132314e+02 
-3.7588457e+03 -2.2583418e+03 5.3039896e+02 
-5.3016586e+02 -4.2872313e+02 -4.5894494e+03 
-3.6291800e+03 -2.3946967e+03 5.1926138e+02 
9.6916163e+02 3.6815525e+03 -3.8071548e+02 
-3.5029381e+03 -2.5151450e+03 5.0771906e+02 
-3.3792712e+03 -2.6195529e+03 4.9560174e+02 
-4.0324131e+02 -4.3289643e+02 -4.5937185e+03 
-4.6027033e+02 1.6352080e+03 -2.0071051e+03 
-1.7295294e+03 -3.6303784e+02 -3.7211322e+03 
-3.2573010e+03 -2.7078285e+03 4.8276485e+02 
-1.5615372e+03 -3.6461559e+02 -3.8474987e+03 
-1.4023148e+03 -3.6586393e+02 -3.9523182e+03 
-2.7854656e+02 -4.3753040e+02 -4.5880556e+03 
-3.1360917e+03 -2.7800131e+03 4.6910556e+02 
-1.2497697e+03 -3.6755593e+02 -4.0432171e+03 
-1.1033623e+03 -3.6958132e+02 -4.1197806e+03 
7.2643404e+02 1.9362859e+03 -2.2363712e+02 
-3.0150580e+03 -2.8352856e+03 4.5445845e+02 
1.3955111e+03 3.8722614e+03 -4.5790660e+02 
1.3360893e+03 3.8533070e+03 -4.4622007e+02 
-9.6241536e+02 -3.7194709e+02 -4.1825016e+03 
-1.5463547e+02 -4.4199479e+02 -4.5655296e+03 
1.2821325e+03 3.8267860e+03 -4.3428806e+02 
1.2324506e+03 3.7923230e+03 -4.2192556e+02 
-2.8904671e+03 -2.8811613e+03 4.3943091e+02 
-8.2627606e+02 -3.7464818e+02 -4.2318169e+03 
1.1859744e+03 3.7494221e+03 -4.0896841e+02 
-6.9430652e+02 -3.7768703e+02 -4.2682088e+03 
-1.4350617e+03 -1.6763375e+03 -2.0624221e+03 
1.1416016e+03 3.6976686e+03 -3.9528360e+02 
1.0981756e+03 3.6368000e+03 -3.8076920e+02 
-5.6588918e+02 -3.8107050e+02 -4.2921893e+03 
1.0548304e+03 3.5658233e+03 -3.6531209e+02 
-1.8888224e+03 -9.5967431e+02 2.6384946e+02 
-3.6925227e+03 -2.0237828e+03 5.0235781e+02 
-3.5635066e+03 -2.1725340e+03 4.9212419e+02 
-4.4043088e+02 -3.8480898e+02 -4.3043112e+03 
-3.4389903e+03 -2.3053895e+03 4.8169212e+02 
-3.3179936e+03 -2.4223490e+03 4.7086903e+02 
1.0080533e+03 3.4911127e+03 -3.4934539e+02 
-3.1996516e+03 -2.5232611e+03 4.5948344e+02 
-3.1736046e+02 -3.8891583e+02 -4.3050608e+03 
-3.7365295e+02 1.5619908e+03 -1.8703296e+03 
-3.0830677e+03 -2.6080203e+03 4.4738999e+02 
-1.6003317e+03 -3.2236010e+02 -3.4760279e+03 
-1.4389318e+03 -3.2395580e+02 -3.5981448e+03 
-1.2859783e+03 -3.2526787e+02 -3.6992257e+03 
-1.9622006e+02 -3.9345967e+02 -4.2958079e+03 
-2.9672878e+03 -2.6766499e+03 4.3448396e+02 
-1.1394205e+03 -3.2699900e+02 -3.7864766e+03 
-9.9871002e+02 -3.2904798e+02 -3.8595028e+03 
-2.8516967e+03 -2.7283599e+03 4.2060721e+02 
7.4004061e+02 1.8180877e+03 -2.0646997e+02 
1.4234144e+03 3.6405782e+03 -4.2226761e+02 
-8.6316622e+02 -3.3142110e+02 -3.9187701e+03 
1.3636367e+03 3.6286623e+03 -4.1126907e+02 
-7.5579052e+01 -3.9787822e+02 -4.2700088e+03 
1.3095218e+03 3.6088301e+03 -4.0004724e+02 
-2.7326212e+03 -2.7702574e+03 4.0629811e+02 
-7.3213350e+02 -3.3411362e+02 -3.9646943e+03 
1.2598540e+03 3.5807187e+03 -3.8841548e+02 
1.2135496e+03 3.5438321e+03 -3.7620834e+02 
-6.0497196e+02 -3.3712790e+02 -3.9977363e+03 
-1.3194393e+03 -1.5977875e+03 -1.9297855e+03 
1.1694909e+03 3.4977580e+03 -3.6329149e+02 
-4.8106322e+02 -3.4047054e+02 -4.0183883e+03 
1.1265073e+03 3.4422316e+03 -3.4956128e+02 
-1.7910848e+03 -9.1889353e+02 2.4418347e+02 
1.0837104e+03 3.3763034e+03 -3.3490849e+02 
-3.4998885e+03 -1.9400536e+03 4.6518430e+02 
-3.3758376e+03 -2.0854599e+03 4.5562683e+02 
-3.5981468e+02 -3.4415148e+02 -4.0271837e+03 
-3.2564150e+03 -2.2149910e+03 4.4588756e+02 
-3.1406141e+03 -2.3286429e+03 4.3577273e+02 
1.0376361e+03 3.3059735e+03 -3.1971107e+02 
-3.0275539e+03 -2.4262473e+03 4.2510993e+02 
-2.4065732e+02 -3.4818394e+02 -4.0245965e+03 
-2.9163196e+03 -2.5076854e+03 4.1375312e+02 
-2.9583231e+02 1.4897965e+03 -1.7377265e+03 
-1.4795047e+03 -2.8483209e+02 -3.2376375e+03 
-1.3246933e+03 -2.8645217e+02 -3.3556691e+03 
-1.1780108e+03 -2.8782889e+02 -3.4531717e+03 
-1.2313681e+02 -3.5262931e+02 -4.0119382e+03 
-2.8059391e+03 -2.5729632e+03 4.0159593e+02 
-1.0374487e+03 -2.8959934e+02 -3.5369389e+03 
-9.0245027e+02 -2.9167083e+02 -3.6065952e+03 
-2.6957675e+03 -2.6213208e+03 3.8848707e+02 
7.4868958e+02 1.7033710e+03 -1.9018741e+02 
-5.8393813e+00 -3.5698864e+02 -3.9830441e+03 
1.4414904e+03 3.4156773e+03 -3.8843849e+02 
-7.7233194e+02 -2.9404908e+02 -3.6625793e+03 
1.3815173e+03 3.4105776e+03 -3.7810724e+02 
-2.5821919e+03 -2.6594660e+03 3.7490063e+02 
1.3273968e+03 3.3972240e+03 -3.6757602e+02 
-6.4643537e+02 -2.9672968e+02 -3.7052853e+03 
1.2778879e+03 3.3752653e+03 -3.5665675e+02 
1.2318931e+03 3.3442061e+03 -3.4518296e+02 
-1.2122186e+03 -1.5209733e+03 -1.8006208e+03 
-5.2411879e+02 -2.9971498e+02 -3.7351525e+03 
1.1882801e+03 3.3036366e+03 -3.3301925e+02 
-4.0476298e+02 -3.0301136e+02 -3.7526529e+03 
1.1458649e+03 3.2532897e+03 -3.2006052e+02 
-1.6970237e+03 -8.7746229e+02 2.2543074e+02 
-3.3145969e+03 -1.8551361e+03 4.2977811e+02 
1.1037375e+03 3.1922586e+03 -3.0620114e+02 
-2.8777579e+02 -3.0662838e+02 -3.7583003e+03 
-3.1954438e+03 -1.9973597e+03 4.2088080e+02 
-3.0810526e+03 -2.1237359e+03 4.1181992e+02 
-2.9703905e+03 -2.2342567e+03 4.0240065e+02 
1.0584846e+03 3.1261786e+03 -2.9176840e+02 
-2.8625608e+03 -2.3287375e+03 3.9244991e+02 
-1.7259025e+02 -3.1057913e+02 -3.7525560e+03 
-2.7566309e+03 -2.4070464e+03 3.8182115e+02 
-2.2627388e+02 1.4187129e+03 -1.6094002e+03 
-1.3665482e+03 -2.5032577e+02 -3.0062118e+03 
-1.2183158e+03 -2.5197654e+02 -3.1203199e+03 
-5.8755249e+01 -3.1491836e+02 -3.7366743e+03 
-1.0779013e+03 -2.5341893e+02 -3.2144012e+03 
-2.6516108e+03 -2.4691727e+03 3.7040660e+02 
-9.4333887e+02 -2.5522902e+02 -3.2948458e+03 
-2.5468261e+03 -2.5143862e+03 3.5806139e+02 
-8.1406380e+02 -2.5732221e+02 -3.3612965e+03 
5.5124907e+01 -3.1920584e+02 -3.7048605e+03 
-6.8939002e+02 -2.5970366e+02 -3.4141644e+03 
7.5267624e+02 1.5921583e+03 -1.7477092e+02 
1.4503278e+03 3.1976005e+03 -3.5638398e+02 
1.3903175e+03 3.1990891e+03 -3.4669817e+02 
-2.4387257e+03 -2.5490043e+03 3.4519999e+02 
1.3363409e+03 3.1919997e+03 -3.3683677e+02 
-5.6865658e+02 -2.6236939e+02 -3.4538217e+03 
1.2871324e+03 3.1759921e+03 -3.2661044e+02 
-1.1128993e+03 -1.4459423e+03 -1.6750596e+03 
1.2415815e+03 3.1505719e+03 -3.1585204e+02 
-4.5121988e+02 -2.6532174e+02 -3.4806860e+03 
1.1985421e+03 3.1153322e+03 -3.0442534e+02 
-3.3645980e+02 -2.6856694e+02 -3.4952088e+03 
1.1568177e+03 3.0700041e+03 -2.9222406e+02 
-1.6064545e+03 -8.3550768e+02 2.0757984e+02 
-3.1362758e+03 -1.7692784e+03 3.9611271e+02 
-3.0219477e+03 -1.9084750e+03 3.8785802e+02 
-2.2378448e+02 -2.7211421e+02 -3.4978838e+03 
1.1154773e+03 3.0137223e+03 -2.7914592e+02 
-2.9125191e+03 -2.0318602e+03 3.7945947e+02 
-2.8069314e+03 -2.1394211e+03 3.7072133e+02 
1.0711612e+03 2.9517669e+03 -2.6547187e+02 
-2.7042729e+03 -2.2309574e+03 3.6147011e+02 
-1.1262877e+02 -2.7597655e+02 -3.4891594e+03 
-2.6035935e+03 -2.3063250e+03 3.5155901e+02 
-1.6445866e+02 1.3488260e+03 -1.4854496e+03 
-1.2609801e+03 -2.1871109e+02 -2.7819922e+03 
-1.1193108e+03 -2.2039857e+02 -2.8923360e+03 
-2.5444139e+00 -2.8020258e+02 -3.4702332e+03 
-2.5038858e+03 -2.3654969e+03 3.4087906e+02 
-9.8515547e+02 -2.2190759e+02 -2.9831495e+03 
-8.5659148e+02 -2.2375771e+02 -3.0604294e+03 
-2.4044462e+03 -2.4077722e+03 3.2929149e+02 
-7.3304671e+02 -2.2587189e+02 -3.1238350e+03 
1.0784511e+02 -2.8440640e+02 -3.4356714e+03 
-6.1383275e+02 -2.2825487e+02 -3.1737503e+03 
7.5229163e+02 1.4844714e+03 -1.6020138e+02 
-2.3017869e+03 -2.4390874e+03 3.1715563e+02 
1.4505062e+03 2.9863882e+03 -3.2606759e+02 
1.3906142e+03 2.9942312e+03 -3.1700426e+02 
1.3369276e+03 2.9931866e+03 -3.0779069e+02 
-4.9828623e+02 -2.3090307e+02 -3.2105251e+03 
1.2881574e+03 2.9829250e+03 -2.9823650e+02 
-1.0209947e+03 -1.3727396e+03 -1.5532285e+03 
1.2431807e+03 2.9629535e+03 -2.8817421e+02 
-3.8576171e+02 -2.3381887e+02 -3.2345552e+03 
1.2008385e+03 2.9328685e+03 -2.7746705e+02 
-2.7563804e+02 -2.3700842e+02 -3.2462709e+03 
1.1599231e+03 2.8923998e+03 -2.6600787e+02 
-1.5192019e+03 -7.9315812e+02 1.9061832e+02 
-2.9645718e+03 -1.6827309e+03 3.6415960e+02 
-2.8549903e+03 -1.8190491e+03 3.5652852e+02 
-1.6732345e+02 -2.4048065e+02 -3.2461460e+03 
1.1194833e+03 2.8407227e+03 -2.5369748e+02 
-2.7504492e+03 -1.9396003e+03 3.4877460e+02 
-2.6498645e+03 -2.0443662e+03 3.4070143e+02 
1.0762153e+03 2.7827722e+03 -2.4077465e+02 
-2.5523099e+03 -2.1331319e+03 3.3213541e+02 
-6.0254289e+01 -2.4424846e+02 -3.2346152e+03 
-2.4568183e+03 -2.2057413e+03 3.2292975e+02 
-1.0988355e+02 1.2802203e+03 -1.3659676e+03 
-1.1623366e+03 -1.8985628e+02 -2.5652100e+03 
-1.0272074e+03 -1.9158605e+02 -2.6719456e+03 
4.6015332e+01 -2.4835487e+02 -3.2128204e+03 
-2.3623660e+03 -2.2621524e+03 3.1297454e+02 
-8.9929616e+02 -1.9316251e+02 -2.7596416e+03 
-7.7672377e+02 -1.9505295e+02 -2.8339107e+03 
-2.2682203e+03 -2.3016927e+03 3.0213678e+02 
-6.5891117e+02 -1.9718744e+02 -2.8944283e+03 
1.5284179e+02 -2.5246404e+02 -3.1756788e+03 
-5.4516791e+02 -1.9957039e+02 -2.9415507e+03 
-2.1709583e+03 -2.3299279e+03 2.9072504e+02 
7.4782265e+02 1.3803315e+03 -1.4645915e+02 
1.4425970e+03 2.7820795e+03 -2.9745163e+02 
1.3829751e+03 2.7960360e+03 -2.8898681e+02 
-4.3482829e+02 -2.0219862e+02 -2.9756056e+03 
1.3297207e+03 2.8008116e+03 -2.8039791e+02 
-9.3603236e+02 -1.3014075e+03 -1.4352495e+03 
1.2815223e+03 2.7960868e+03 -2.7149382e+02 
-3.2724502e+02 -2.0507462e+02 -2.9969663e+03 
1.2372456e+03 2.7813710e+03 -2.6210706e+02 
1.1957198e+03 2.7562646e+03 -2.5210064e+02 
-2.2179576e+02 -2.0820446e+02 -3.0060422e+03 
1.1557268e+03 2.7204969e+03 -2.4136681e+02 
-1.4351001e+03 -7.5054301e+02 1.7453270e+02 
-2.7991505e+03 -1.5957454e+03 3.3388844e+02 
-2.6942326e+03 -1.7293256e+03 3.2686049e+02 
-1.1788850e+02 -2.1159685e+02 -3.0032866e+03 
-2.5944975e+03 -1.8471921e+03 3.1973190e+02 
1.1162965e+03 2.6732826e+03 -2.2980932e+02 
-2.4988373e+03 -1.9493212e+03 3.1230585e+02 
-2.4063113e+03 -2.0354839e+03 3.0440895e+02 
-1.4960723e+01 -2.1526460e+02 -2.9891197e+03 
1.0741837e+03 2.6192224e+03 -2.1762873e+02 
-2.3159364e+03 -2.1055133e+03 2.9589469e+02 
-6.2061766e+01 1.2129778e+03 -1.2510413e+03 
-1.0701731e+03 -1.6362823e+02 -2.3560855e+03 
8.7431714e+01 -2.1924561e+02 -2.9646288e+03 
-2.2266730e+03 -2.1593527e+03 2.8665251e+02 
-9.4155355e+02 -1.6540530e+02 -2.4593663e+03 
-8.1986425e+02 -1.6704967e+02 -2.5440911e+03 
-7.0327031e+02 -1.6898052e+02 -2.6154997e+03 
-2.1377609e+03 -2.1963582e+03 2.7655490e+02 
-5.9118610e+02 -1.7113458e+02 -2.6732819e+03 
1.9062421e+02 -2.2324999e+02 -2.9250719e+03 
-2.0458428e+03 -2.2217349e+03 2.6586389e+02 
-4.8291938e+02 -1.7351597e+02 -2.7177672e+03 
7.3955203e+02 1.2797592e+03 -1.3352404e+02 
1.4271628e+03 2.5847120e+03 -2.7049722e+02 
1.3679589e+03 2.6045340e+03 -2.6260598e+02 
-3.7780223e+02 -1.7612196e+02 -2.7492607e+03 
1.3152746e+03 2.6148988e+03 -2.5461753e+02 
-8.5755552e+02 -1.2319850e+03 -1.3212387e+03 
1.2677768e+03 2.6154968e+03 -2.4634031e+02 
-2.7518545e+02 -1.7895515e+02 -2.7681135e+03 
1.2243207e+03 2.6058406e+03 -2.3760723e+02 
1.1837250e+03 2.5855351e+03 -2.2828139e+02 
-1.7444526e+02 -1.8202160e+02 -2.7747133e+03 
1.1447626e+03 2.5543100e+03 -2.1825478e+02 
-1.3539935e+03 -7.0779249e+02 1.5930849e+02 
-2.6396980e+03 -1.5085744e+03 3.0526708e+02 
-2.5393556e+03 -1.6395480e+03 2.9882041e+02 
-7.4989095e+01 -1.8532983e+02 -2.7694923e+03 
-2.4443395e+03 -1.7548710e+03 2.9229634e+02 
1.1064458e+03 2.5114192e+03 -2.0743393e+02 
-2.3535180e+03 -1.8545135e+03 2.8549788e+02 
-2.2659375e+03 -1.9382340e+03 2.7825227e+02 
2.3744957e+01 -1.8889256e+02 -2.7528565e+03 
1.0655905e+03 2.4611394e+03 -1.9598502e+02 
-2.1805995e+03 -2.0058555e+03 2.7041354e+02 
-2.0523121e+01 1.1471777e+03 -1.1407512e+03 
1.2220000e+02 -1.9274306e+02 -2.7258385e+03 
-9.8406476e+02 -1.3989286e+02 -2.1548270e+03 
-2.0964498e+03 -2.0573077e+03 2.6187082e+02 
-8.6191611e+02 -1.4172150e+02 -2.2548032e+03 
-7.4641919e+02 -1.4343383e+02 -2.3366995e+03 
-6.3578365e+02 -1.4540486e+02 -2.4053934e+03 
-2.0127012e+03 -2.0919751e+03 2.5250184e+02 
-5.2941779e+02 -1.4757754e+02 -2.4605888e+03 
2.2168978e+02 -1.9663344e+02 -2.6840267e+03 
-1.9260641e+03 -2.1147128e+03 2.4252615e+02 
-4.2662782e+02 -1.4995579e+02 -2.5025884e+03 
7.2775835e+02 1.1827746e+03 -1.2137533e+02 
1.4047575e+03 2.3943215e+03 -2.4516430e+02 
-3.2674367e+02 -1.5253734e+02 -2.5316750e+03 
1.3461153e+03 2.4197531e+03 -2.3782089e+02 
-7.8512325e+02 -1.1645081e+03 -1.2113066e+03 
1.2941339e+03 2.4354697e+03 -2.3040765e+02 
1.2474601e+03 2.4411709e+03 -2.2273296e+02 
-2.2911413e+02 -1.5532495e+02 -2.5481772e+03 
1.2049399e+03 2.4363741e+03 -2.1463047e+02 
-1.3311374e+02 -1.5832466e+02 -2.5524607e+03 
1.1653822e+03 2.4206896e+03 -2.0596374e+02 
1.1275528e+03 2.3938484e+03 -1.9662482e+02 
-1.2757370e+03 -6.6503717e+02 1.4493023e+02 
-2.4859213e+03 -1.4214710e+03 2.7826168e+02 
-2.3900621e+03 -1.5499594e+03 2.7237315e+02 
-3.8148915e+01 -1.6154487e+02 -2.5449366e+03 
-2.2996720e+03 -1.6628705e+03 2.6643129e+02 
1.0904477e+03 2.3551432e+03 -1.8652294e+02 
-2.2135970e+03 -1.7601683e+03 2.6023931e+02 
-2.1308710e+03 -1.8415997e+03 2.5362542e+02 
5.6342201e+01 -1.6499823e+02 -2.5259954e+03 
1.0509470e+03 2.3085383e+03 -1.7579351e+02 
-2.0504815e+03 -1.9069786e+03 2.4644456e+02 
1.5080253e+02 -1.6871378e+02 -2.4966159e+03 
1.5185687e+01 1.0828962e+03 -1.0351711e+03 
-1.9713609e+03 -1.9562226e+03 2.3858584e+02 
-9.0360716e+02 -1.1851553e+02 -1.9616304e+03 
-7.8788188e+02 -1.2039911e+02 -2.0584488e+03 
-6.7853962e+02 -1.2217885e+02 -2.1376550e+03 
-1.8926961e+03 -1.9887444e+03 2.2993207e+02 
-5.7383496e+02 -1.2418939e+02 -2.2037756e+03 
2.4652367e+02 -1.7248188e+02 -2.4527058e+03 
-4.7317053e+02 -1.2637947e+02 -2.2565280e+03 
-1.8112673e+03 -2.0090607e+03 2.2066426e+02 
-3.7585123e+02 -1.2875288e+02 -2.2961888e+03 
7.1271603e+02 1.0893970e+03 -1.0999186e+02 
1.3759266e+03 2.2109425e+03 -2.2141165e+02 
-2.8120491e+02 -1.3130781e+02 -2.3230186e+03 
-7.1831139e+02 -1.0990089e+03 -1.1055577e+03 
1.3179848e+03 2.2417193e+03 -2.1458961e+02 
1.2668339e+03 2.2625429e+03 -2.0772549e+02 
1.2211019e+03 2.2731218e+03 -2.0062793e+02 
-1.8857824e+02 -1.3404720e+02 -2.3373233e+03 
1.1796266e+03 2.2729792e+03 -1.9313177e+02 
-9.7343757e+01 -1.3697715e+02 -2.3394467e+03 
1.1412086e+03 2.2617325e+03 -1.8510137e+02 
-1.2001961e+03 -6.2240793e+02 1.3138151e+02 
1.1046082e+03 2.2391152e+03 -1.7642922e+02 
-2.3375488e+03 -1.3346880e+03 2.5283676e+02 
-2.2460765e+03 -1.4608018e+03 2.4748204e+02 
-6.9063412e+00 -1.4010595e+02 -2.3297782e+03 
-2.1602142e+03 -1.5714224e+03 2.4209871e+02 
1.0688070e+03 2.2044589e+03 -1.6702720e+02 
-2.0787867e+03 -1.6665077e+03 2.3649054e+02 
-2.0008167e+03 -1.7457943e+03 2.3048712e+02 
8.3296442e+01 -1.4344616e+02 -2.3086916e+03 
1.0307520e+03 2.1614273e+03 -1.5700338e+02 
-1.9252788e+03 -1.8090885e+03 2.2394465e+02 
1.7370831e+02 -1.4702306e+02 -2.2771128e+03 
-1.8510935e+03 -1.8562972e+03 2.1675262e+02 
4.5500852e+01 1.0202059e+03 -9.3436761e+02 
-8.2841675e+02 -9.9361445e+01 -1.7766779e+03 
-7.1905798e+02 -1.0130228e+02 -1.8704818e+03 
-6.1582397e+02 -1.0314819e+02 -1.9471315e+03 
-1.7774236e+03 -1.8868614e+03 2.0879875e+02 
-5.1701456e+02 -1.0519699e+02 -2.0108153e+03 
2.6559837e+02 -1.5066162e+02 -2.2312570e+03 
-4.2202714e+02 -1.0740286e+02 -2.0612636e+03 
-1.7011203e+03 -1.9049711e+03 2.0022927e+02 
-3.3016552e+02 -1.0976950e+02 -2.0987275e+03 
-6.5671309e+02 -1.0355157e+03 -1.0040897e+03 
-2.4075552e+02 -1.1229559e+02 -2.1234460e+03 
6.9469527e+02 9.9964490e+02 -9.9351939e+01 
1.3412070e+03 2.0346075e+03 -1.9919687e+02 
1.2840989e+03 2.0704566e+03 -1.9286921e+02 
1.2339005e+03 2.0961343e+03 -1.8652736e+02 
-1.5314151e+02 -1.1498428e+02 -2.1357024e+03 
1.1892219e+03 2.1113584e+03 -1.7998063e+02 
1.1488940e+03 2.1156594e+03 -1.7306543e+02 
-6.6693690e+01 -1.1784171e+02 -2.1358181e+03 
1.1117109e+03 2.1086632e+03 -1.6564734e+02 
-1.1272473e+03 -5.8003571e+02 1.1864493e+02 
-2.1943310e+03 -1.2484779e+03 2.2895531e+02 
1.0764286e+03 2.0901076e+03 -1.5761969e+02 
-2.1071457e+03 -1.3723156e+03 2.2410900e+02 
1.9185133e+01 -1.2087615e+02 -2.1241601e+03 
-2.0257079e+03 -1.4807560e+03 2.1925921e+02 
-1.9488229e+03 -1.5737504e+03 2.1421070e+02 
1.0420164e+03 2.0593636e+03 -1.4889695e+02 
-1.8755029e+03 -1.6510270e+03 2.0879487e+02 
1.0505873e+02 -1.2410006e+02 -2.1010853e+03 
1.0054920e+03 2.0198066e+03 -1.3956320e+02 
-1.8047115e+03 -1.7123859e+03 2.0286956e+02 
1.9137266e+02 -1.2753536e+02 -2.0674661e+03 
-1.7353585e+03 -1.7577250e+03 1.9632505e+02 
7.0841322e+01 9.5917488e+02 -8.3839999e+02 
-7.5813140e+02 -8.2296066e+01 -1.6001376e+03 
-6.5507237e+02 -8.4295280e+01 -1.6910660e+03 
-5.5789096e+02 -8.6205257e+01 -1.7652880e+03 
-1.6665845e+03 -1.7865142e+03 1.8905384e+02 
-4.6493249e+02 -8.8290423e+01 -1.8266659e+03 
2.7937344e+02 -1.3103816e+02 -2.0198135e+03 
-3.7558953e+02 -9.0510004e+01 -1.8749435e+03 
-1.5953145e+03 -1.8026290e+03 1.8117102e+02 
-2.8916502e+02 -9.2867658e+01 -1.9103473e+03 
-5.9993934e+02 -9.7405265e+02 -9.0699359e+02 
-2.0498275e+02 -9.5362577e+01 -1.9330952e+03 
6.7396196e+02 9.1353617e+02 -8.9433461e+01 
1.3011266e+03 1.8653475e+03 -1.7847642e+02 
1.2449802e+03 1.9059867e+03 -1.7261578e+02 
1.1958500e+03 1.9362574e+03 -1.6676877e+02 
-1.2238465e+02 -9.7998129e+01 -1.9434480e+03 
1.1523303e+03 1.9558865e+03 -1.6074577e+02 
1.1132457e+03 1.9644139e+03 -1.5438519e+02 
-4.0738176e+01 -1.0078057e+02 -1.9417046e+03 
1.0773851e+03 1.9614757e+03 -1.4755424e+02 
-1.0567778e+03 -5.3805140e+02 1.0670219e+02 
-2.0560403e+03 -1.1630923e+03 2.0657883e+02 
-1.9730391e+03 -1.2847398e+03 2.0221457e+02 
4.0556543e+01 -1.0371814e+02 -1.9282090e+03 
1.0435026e+03 1.9468164e+03 -1.4014747e+02 
-1.8959182e+03 -1.3910976e+03 1.9787216e+02 
-1.8234647e+03 -1.4821112e+03 1.9335779e+02 
1.0105575e+03 1.9198471e+03 -1.3208202e+02 
-1.7546819e+03 -1.5575018e+03 1.8850511e+02 
1.2206541e+02 -1.0682322e+02 -1.9032999e+03 
-1.6885234e+03 -1.6170653e+03 1.8317402e+02 
9.7564118e+02 1.8836684e+03 -1.2342106e+02 
2.0423701e+02 -1.1011475e+02 -1.8677965e+03 
-1.6238908e+03 -1.6606924e+03 1.7725599e+02 
9.1608714e+01 8.9986685e+02 -7.4731984e+02 
-6.9241082e+02 -6.7185594e+01 -1.4321622e+03 
-5.9557441e+02 -6.9242972e+01 -1.5203496e+03 
-1.5599043e+03 -1.6878828e+03 1.7064827e+02 
-5.0438013e+02 -7.1213958e+01 -1.5922669e+03 
-4.1721898e+02 -7.3332808e+01 -1.6514640e+03 
2.8829531e+02 -1.1347674e+02 -1.8184926e+03 
-3.3347915e+02 -7.5563439e+01 -1.6976984e+03 
-1.4935649e+03 -1.7022107e+03 1.6343829e+02 
-2.5246289e+02 -7.7909535e+01 -1.7311734e+03 
-5.4761946e+02 -9.1463916e+02 -8.1435311e+02 
-1.7349202e+02 -8.0370790e+01 -1.7520863e+03 
6.5077748e+02 8.3108796e+02 -8.0213850e+01 
1.2562044e+03 1.7031921e+03 -1.5920557e+02 
1.2011417e+03 1.7483296e+03 -1.5378444e+02 
1.1531896e+03 1.7829233e+03 -1.4840446e+02 
-9.5905757e+01 -8.2950823e+01 -1.7606760e+03 
1.1109277e+03 1.8067091e+03 -1.4287748e+02 
1.0731753e+03 1.8192379e+03 -1.3704433e+02 
-1.9068431e+01 -8.5656023e+01 -1.7572183e+03 
1.0387177e+03 1.8201588e+03 -1.3077427e+02 
-9.8868622e+02 -4.9658567e+02 9.5533999e+01 
-1.9224715e+03 -1.0787818e+03 1.8566739e+02 
-1.8435489e+03 -1.1983110e+03 1.8175803e+02 
5.7623166e+01 -8.8494640e+01 -1.7420339e+03 
1.0063088e+03 1.8092258e+03 -1.2396350e+02 
-1.7706334e+03 -1.3026708e+03 1.7789581e+02 
-1.7024952e+03 -1.3918008e+03 1.7388880e+02 
9.7490051e+02 1.7858915e+03 -1.1653194e+02 
-1.6381301e+03 -1.4654174e+03 1.6957336e+02 
1.3473791e+02 -9.1479008e+01 -1.7154419e+03 
-1.5764834e+03 -1.5233143e+03 1.6481188e+02 
9.4166231e+02 1.7529959e+03 -1.0852478e+02 
2.1272867e+02 -9.4625431e+01 -1.6782079e+03 
-1.5164502e+03 -1.5653779e+03 1.5949747e+02 
1.0818733e+02 8.4234004e+02 -6.6117077e+02 
-6.3093701e+02 -5.3897407e+01 -1.2728887e+03 
-5.4023521e+02 -5.6011253e+01 -1.3584641e+03 
-1.4571330e+03 -1.5911386e+03 1.5353217e+02 
-4.5495222e+02 -5.8039106e+01 -1.4281932e+03 
2.9279709e+02 -9.7842722e+01 -1.6273954e+03 
-3.7352487e+02 -6.0188088e+01 -1.4853281e+03 
-1.3956119e+03 -1.6038831e+03 1.4697902e+02 
-2.9533740e+02 -6.2426468e+01 -1.5296402e+03 
-2.1969158e+02 -6.4758000e+01 -1.5613119e+03 
-4.9940153e+02 -8.5728984e+02 -7.2624434e+02 
-1.4590721e+02 -6.7182883e+01 -1.5805203e+03 
6.2539850e+02 7.5231663e+02 -7.1670097e+01 
1.2069498e+03 1.5481691e+03 -1.4133838e+02 
1.1530869e+03 1.5975039e+03 -1.3632936e+02 
-7.3320634e+01 -6.9705008e+01 -1.5874828e+03 
1.1064167e+03 1.6361414e+03 -1.3138844e+02 
1.0655053e+03 1.6638262e+03 -1.2632936e+02 
1.0291674e+03 1.6801229e+03 -1.2099576e+02 
-1.2925300e+00 -7.2330926e+01 -1.5824523e+03 
9.9618551e+02 1.6846961e+03 -1.1525938e+02 
-9.2288158e+02 -4.5576890e+02 8.5120133e+01 
-1.7934411e+03 -9.9579591e+02 1.6617964e+02 
-1.7184898e+03 -1.1132639e+03 1.6269742e+02 
7.0784306e+01 -7.5068950e+01 -1.5657251e+03 
9.6531571e+02 1.6773133e+03 -1.0901856e+02 
-1.6496650e+03 -1.2156958e+03 1.5928735e+02 
-1.5857217e+03 -1.3030255e+03 1.5575980e+02 
9.3550559e+02 1.6574708e+03 -1.0219615e+02 
-1.5256488e+03 -1.3749669e+03 1.5195434e+02 
1.4348262e+02 -7.7931365e+01 -1.5375994e+03 
-1.4683852e+03 -1.4313139e+03 1.4773627e+02 
9.0400692e+02 1.6277632e+03 -9.4822123e+01 
2.1726079e+02 -8.0932196e+01 -1.4987868e+03 
-1.4128218e+03 -1.4719515e+03 1.4300088e+02 
1.2094425e+02 7.8664688e+02 -5.7998823e+02 
-5.7341458e+02 -4.2300535e+01 -1.1224370e+03 
-4.8874810e+02 -4.4467554e+01 -1.2055230e+03 
-1.3580462e+03 -1.4964429e+03 1.3765498e+02 
-4.0928966e+02 -4.6546944e+01 -1.2731732e+03 
2.9329857e+02 -8.4002149e+01 -1.4466061e+03 
-3.3352203e+02 -4.8721545e+01 -1.3283569e+03 
-1.3012208e+03 -1.5078018e+03 1.3174048e+02 
-2.6082598e+02 -5.0963651e+01 -1.3708611e+03 
-1.9050305e+02 -5.3277123e+01 -1.4008483e+03 
-4.5495266e+02 -8.0201398e+02 -6.4273548e+02 
-1.2187103e+02 -5.5662665e+01 -1.4184773e+03 
5.9807662e+02 6.7723773e+02 -6.3778749e+01 
1.1538622e+03 1.4003050e+03 -1.2482772e+02 
1.1013089e+03 1.4535266e+03 -1.2020372e+02 
-5.4263022e+01 -5.8124454e+01 -1.4239443e+03 
1.0560188e+03 1.4959192e+03 -1.1567402e+02 
1.0165448e+03 1.5272357e+03 -1.1105453e+02 
1.2964411e+01 -6.0669234e+01 -1.4174790e+03 
9.8169715e+02 1.5470569e+03 -1.0619212e+02 
9.5025645e+02 1.5550665e+03 -1.0096143e+02 
-8.5928366e+02 -4.1573111e+02 7.5439384e+01 
-1.6687871e+03 -9.1438297e+02 1.4807292e+02 
-1.5976987e+03 -1.0298312e+03 1.4498964e+02 
8.0423182e+01 -6.3305431e+01 -1.3993528e+03 
-1.5328477e+03 -1.1303899e+03 1.4200298e+02 
9.2098286e+02 1.5510498e+03 -9.5263442e+01 
-1.4729752e+03 -1.2159874e+03 1.3892607e+02 
-1.4170641e+03 -1.2863374e+03 1.3560210e+02 
1.4869078e+02 -6.6045306e+01 -1.3698413e+03 
8.9282301e+02 1.5345506e+03 -8.9024139e+01 
-1.3640482e+03 -1.3412372e+03 1.3189979e+02 
8.6311609e+02 1.5079340e+03 -8.2260929e+01 
2.1823236e+02 -6.8900937e+01 -1.3296010e+03 
-1.3128168e+03 -1.3805739e+03 1.2771708e+02 
1.3022951e+02 7.3283330e+02 -5.0379929e+02 
-5.1957112e+02 -3.2266142e+01 -9.8090962e+02 
-1.2624456e+03 -1.4039464e+03 1.2296571e+02 
-4.4082898e+02 -3.4481329e+01 -1.0616210e+03 
-3.6709687e+02 -3.6605649e+01 -1.1272932e+03 
2.9020627e+02 -7.1822199e+01 -1.2761915e+03 
-2.9690367e+02 -3.8800316e+01 -1.1806286e+03 
-1.2101831e+03 -1.4141108e+03 1.1766947e+02 
-2.2962724e+02 -4.1041340e+01 -1.2214312e+03 
-1.6456916e+02 -4.3332714e+01 -1.2498463e+03 
-4.1395935e+02 -7.4881526e+02 -5.6388646e+02 
-1.0104514e+02 -4.5675635e+01 -1.2660155e+03 
5.6905791e+02 6.0586582e+02 -5.6515908e+01 
1.0974297e+03 1.2596245e+03 -1.0962515e+02 
1.0462900e+03 1.3164136e+03 -1.0535975e+02 
-3.8384759e+01 -4.8074584e+01 -1.2701142e+03 
1.0024732e+03 1.3622633e+03 -1.0121380e+02 
9.6451869e+02 1.3969341e+03 -9.7005703e+01 
2.4060147e+01 -5.0536528e+01 -1.2623492e+03 
9.3123133e+02 1.4200252e+03 -9.2585861e+01 
9.0139016e+02 1.4312442e+03 -8.7832287e+01 
-7.9782229e+02 -3.7660179e+02 6.6469542e+01 
-1.5483679e+03 -8.3478983e+02 1.3130319e+02 
-1.4810336e+03 -9.4824319e+02 1.2859046e+02 
8.6906918e+01 -5.3070061e+01 -1.2429660e+03 
-1.4200386e+03 -1.0469672e+03 1.2599802e+02 
8.7376130e+02 1.4303997e+03 -8.2649081e+01 
-1.3641105e+03 -1.1308843e+03 1.2334218e+02 
-1.3122270e+03 -1.1997106e+03 1.2047018e+02 
1.5073863e+02 -5.5687453e+01 -1.2122158e+03 
8.4729421e+02 1.4170877e+03 -7.6965675e+01 
-1.2633179e+03 -1.2532499e+03 1.1725461e+02 
8.1942121e+02 1.3934619e+03 -7.0789374e+01 
2.1602839e+02 -5.8399163e+01 -1.1706990e+03 
-1.2162727e+03 -1.2913966e+03 1.1359662e+02 
1.3637632e+02 6.8093816e+02 -4.3262255e+02 
-1.1701595e+03 -1.3137885e+03 1.0941307e+02 
-4.6915755e+02 -2.3668012e+01 -8.4839062e+02 
-3.9621673e+02 -2.5924559e+01 -9.2683292e+02 
-3.2810069e+02 -2.8085849e+01 -9.9061809e+02 
2.8391360e+02 -6.1171697e+01 -1.1162003e+03 
-2.6338468e+02 -3.0293927e+01 -1.0421987e+03 
-1.1223171e+03 -1.3229409e+03 1.0471252e+02 
-2.0144440e+02 -3.2528221e+01 -1.0813977e+03 
-1.4158176e+02 -3.4792869e+01 -1.1083458e+03 
-3.7612762e+02 -6.9769131e+02 -4.8974876e+02 
-8.3110362e+01 -3.7089544e+01 -1.1231688e+03 
5.3858227e+02 5.3821423e+02 -4.9857215e+01 
1.0381286e+03 1.1261505e+03 -9.5680920e+01 
-2.5355816e+01 -3.9423038e+01 -1.1260223e+03 
9.8850064e+02 1.1861798e+03 -9.1748648e+01 
9.4624608e+02 1.2351797e+03 -8.7959719e+01 
9.0988947e+02 1.2729166e+03 -8.4135210e+01 
3.2335371e+01 -4.1800578e+01 -1.1170900e+03 
8.7822802e+02 1.2990112e+03 -8.0129338e+01 
-7.3843680e+02 -3.3850975e+02 5.8187366e+01 
-1.4320614e+03 -7.5726188e+02 1.1582505e+02 
8.5003852e+02 1.3131994e+03 -7.5823910e+01 
-1.3683729e+03 -8.6872858e+02 1.1345451e+02 
9.0586708e+01 -4.4230979e+01 -1.0965908e+03 
-1.3111162e+03 -9.6563937e+02 1.1122690e+02 
8.2409464e+02 1.3153209e+03 -7.1126701e+01 
-1.2590059e+03 -1.0479103e+03 1.0896208e+02 
-1.2110135e+03 -1.1152623e+03 1.0651167e+02 
1.4998764e+02 -4.6726573e+01 -1.0647497e+03 
7.9935279e+02 1.3050303e+03 -6.5970940e+01 
-1.1660654e+03 -1.1675102e+03 1.0375264e+02 
7.7334499e+02 1.2842892e+03 -6.0356158e+01 
2.1102021e+02 -4.9296519e+01 -1.0221093e+03 
-1.1230539e+03 -1.2045609e+03 1.0058989e+02 
-1.0810432e+03 -1.2260962e+03 9.6945676e+01 
1.3970144e+02 6.3099266e+02 -3.6646807e+02 
-4.2194850e+02 -1.6383032e+01 -7.2494509e+02 
-3.5467372e+02 -1.8672266e+01 -8.0121215e+02 
2.7480125e+02 -5.1921616e+01 -9.6666260e+02 
-2.9205085e+02 -2.0861152e+01 -8.6318966e+02 
-1.0374677e+03 -1.2344089e+03 9.2816088e+01 
-2.3270211e+02 -2.3074834e+01 -9.1309815e+02 
-1.7600192e+02 -2.5295866e+01 -9.5078233e+02 
-3.4118316e+02 -6.4863335e+02 -4.2036514e+02 
-1.2125299e+02 -2.7528531e+01 -9.7636079e+02 
-6.7766661e+01 -2.9774956e+01 -9.8994532e+02 
5.0688267e+02 4.7429467e+02 -4.3777839e+01 
-1.4864175e+01 -3.2040244e+01 -9.9167259e+02 
9.7642135e+02 9.9990367e+02 -8.2943889e+01 
9.2839777e+02 1.0628394e+03 -7.9320560e+01 
8.8779191e+02 1.1146743e+03 -7.5862995e+01 
8.5310968e+02 1.1551784e+03 -7.2395005e+01 
3.8113979e+01 -3.4331911e+01 -9.8170332e+02 
8.2313695e+02 1.1839964e+03 -6.8774823e+01 
-6.8107520e+02 -3.0158291e+02 5.0568539e+01 
-1.3197632e+03 -6.8204276e+02 1.0159174e+02 
7.9664627e+02 1.2008991e+03 -6.4888467e+01 
-1.2596135e+03 -7.9151403e+02 9.9535323e+01 
9.1798203e+01 -3.6659055e+01 -9.6022909e+02 
-1.2059797e+03 -8.8661574e+02 9.7643261e+01 
-1.1575619e+03 -9.6725609e+02 9.5739154e+01 
7.7241988e+02 1.2057655e+03 -6.0647950e+01 
-1.1133238e+03 -1.0331635e+03 9.3679351e+01 
1.4678498e+02 -3.9034131e+01 -9.2744658e+02 
7.4942561e+02 1.1983177e+03 -5.5990716e+01 
-1.0721883e+03 -1.0841686e+03 9.1345643e+01 
2.0356604e+02 -4.1465322e+01 -8.8383873e+02 
7.2530263e+02 1.1803471e+03 -5.0910717e+01 
-1.0330520e+03 -1.1201979e+03 8.8647294e+01 
-9.9497988e+02 -1.1409839e+03 8.5512242e+01 
1.4050541e+02 5.8301976e+02 -3.0533741e+02 
-3.7774296e+02 -1.0291676e+01 -6.1061839e+02 
-3.1598640e+02 -1.2603018e+01 -6.8478967e+02 
2.6323774e+02 -4.3945575e+01 -8.2758979e+02 
-2.5872060e+02 -1.4808677e+01 -7.4502505e+02 
-9.5550806e+02 -1.1486168e+03 8.1926777e+01 
-2.0461564e+02 -1.7018968e+01 -7.9333188e+02 
-1.5304591e+02 -1.9219291e+01 -8.2957937e+02 
-3.0887132e+02 -6.0162586e+02 -3.5576957e+02 
-1.0331536e+02 -2.1414062e+01 -8.5387717e+02 
-5.4733100e+01 -2.3605829e+01 -8.6632479e+02 
-6.6155007e+00 -2.5800000e+01 -8.6704092e+02 
4.7418413e+02 4.1411669e+02 -3.8252456e+01 
9.1275487e+02 8.8090175e+02 -7.1361495e+01 
8.6642367e+02 9.4640506e+02 -6.8024556e+01 
8.2755214e+02 1.0007527e+03 -6.4874129e+01 
4.1703617e+01 -2.8004400e+01 -8.5616354e+02 
7.9462125e+02 1.0437143e+03 -6.1736669e+01 
7.6639941e+02 1.0749617e+03 -5.8474550e+01 
-6.2569313e+02 -2.6594784e+02 4.3587632e+01 
-1.2113846e+03 -6.0937393e+02 8.8555101e+01 
-1.1546691e+03 -7.1682444e+02 8.6785320e+01 
9.0862235e+01 -3.0228468e+01 -8.3385628e+02 
7.4165143e+02 1.0943074e+03 -5.4978384e+01 
-1.1045468e+03 -8.1010355e+02 8.5199897e+01 
-1.0597004e+03 -8.8910936e+02 8.3626282e+01 
7.1916833e+02 1.1016805e+03 -5.1164996e+01 
-1.0190823e+03 -9.5358042e+02 8.1925772e+01 
1.4146439e+02 -3.2484855e+01 -8.0028549e+02 
6.9793403e+02 1.0968811e+03 -4.6976534e+01 
-9.8160993e+02 -1.0033688e+03 7.9985398e+01 
1.9401192e+02 -3.4781089e+01 -7.5587221e+02 
-9.4618595e+02 -1.0384292e+03 7.7719388e+01 
6.7570319e+02 1.0815553e+03 -4.2403423e+01 
-9.1188079e+02 -1.0585531e+03 7.5061761e+01 
1.3907298e+02 5.3703366e+02 -2.4922365e+02 
-3.3636509e+02 -5.2784777e+00 -5.0543546e+02 
2.4958034e+02 -3.7120338e+01 -6.9897372e+02 
-2.7996631e+02 -7.5994309e+00 -5.7757241e+02 
-2.2790761e+02 -9.8095758e+00 -6.3611460e+02 
-8.7633908e+02 -1.0656504e+03 7.1991522e+01 
-1.7890846e+02 -1.2006276e+01 -6.8287567e+02 
-1.3234469e+02 -1.4177507e+01 -7.1775265e+02 
-2.7895700e+02 -5.5664623e+02 -2.9598714e+02 
-8.7522112e+01 -1.6327802e+01 -7.4084948e+02 
-4.3747671e+01 -1.8460089e+01 -7.5225526e+02 
-3.3255042e-01 -2.0580064e+01 -7.5207186e+02 
4.4070252e+02 3.5768706e+02 -3.3255240e+01 
8.4755852e+02 7.6915856e+02 -6.0879731e+01 
8.0300419e+02 8.3688823e+02 -5.7808599e+01 
7.6595432e+02 8.9342028e+02 -5.4942871e+01 
4.3396632e+01 -2.2695861e+01 -7.4041483e+02 
7.3485485e+02 9.3851954e+02 -5.2111390e+01 
7.0844802e+02 9.7188753e+02 -4.9180700e+01 
-5.7225259e+02 -2.3172930e+02 3.7218071e+01 
-1.1068503e+03 -5.3949407e+02 7.6665528e+01 
-1.0534678e+03 -6.4488264e+02 7.5155778e+01 
8.8085991e+01 -2.4817301e+01 -7.1741925e+02 
6.8548552e+02 9.9338666e+02 -4.6046366e+01 
-1.0067526e+03 -7.3630810e+02 7.3848823e+01 
-9.6536361e+02 -8.1365516e+02 7.2575876e+01 
6.6476642e+02 1.0030081e+03 -4.2630608e+01 
-9.2823616e+02 -8.7667504e+02 7.1203303e+01 
1.3434747e+02 -2.6957310e+01 -6.8321908e+02 
6.4529523e+02 1.0006437e+03 -3.8880805e+01 
-8.9427943e+02 -9.2524786e+02 6.9623754e+01 
1.8269304e+02 -2.9123087e+01 -6.3817103e+02 
-8.6240233e+02 -9.5936650e+02 6.7757032e+01 
6.2495126e+02 9.8782215e+02 -3.4785782e+01 
-8.3168577e+02 -9.7889224e+02 6.5543672e+01 
1.3567334e+02 4.9303947e+02 -1.9811145e+02 
-2.9766546e+02 -1.2324670e+00 -4.0939995e+02 
2.3417637e+02 -3.1326305e+01 -5.8078651e+02 
-2.4645132e+02 -3.5486447e+00 -4.7954160e+02 
-1.9943530e+02 -5.7495388e+00 -5.3641932e+02 
-7.9989077e+02 -9.8557970e+02 6.2957797e+01 
-1.5538847e+02 -7.9212482e+00 -5.8167332e+02 
-1.1368971e+02 -1.0054071e+01 -6.1523203e+02 
-2.5122433e+02 -5.1366449e+02 -2.4103405e+02 
-7.3647548e+01 -1.2152638e+01 -6.3719706e+02 
-3.4567029e+01 -1.4220218e+01 -6.4764927e+02 
4.2457647e+00 -1.6262755e+01 -6.4667493e+02 
4.0664334e+02 3.0500926e+02 -2.8759861e+01 
7.8124198e+02 6.6468333e+02 -5.1443185e+01 
7.3854757e+02 7.3429753e+02 -4.8619578e+01 
7.0341125e+02 7.9268091e+02 -4.6018224e+01 
4.3471541e+01 -1.8288664e+01 -6.3436759e+02 
6.7422930e+02 8.3958815e+02 -4.3469932e+01 
6.4970624e+02 8.7475346e+02 -4.0845374e+01 
-5.2072039e+02 -1.9904964e+02 3.1432131e+01 
-1.0060952e+03 -4.7263830e+02 6.5871966e+01 
-9.5595001e+02 -5.7590894e+02 6.4596849e+01 
8.3764815e+01 -2.0308156e+01 -6.1083325e+02 
-9.1254707e+02 -6.6543242e+02 6.3541267e+01 
6.2857346e+02 8.9809750e+02 -3.8045396e+01 
-8.7451193e+02 -7.4107574e+02 6.2539906e+01 
6.0963613e+02 9.0968725e+02 -3.4998180e+01 
-8.4075457e+02 -8.0260534e+02 6.1464196e+01 
1.2574558e+02 -2.2334491e+01 -5.7617131e+02 
-8.1017066e+02 -8.4993667e+02 6.0212744e+01 
5.9192351e+02 9.0952242e+02 -3.1656911e+01 
1.6993571e+02 -2.4374873e+01 -5.3067153e+02 
-7.8167496e+02 -8.8311245e+02 5.8711516e+01 
5.7344891e+02 8.9904558e+02 -2.8010584e+01 
-7.5436362e+02 -9.0207705e+02 5.6908039e+01 
1.3056039e+02 4.5103303e+02 -1.5197689e+02 
2.1736518e+02 -2.6447991e+01 -4.7297997e+02 
-2.6152279e+02 1.9524322e+00 -3.2249301e+02 
-2.1530745e+02 -3.4275913e-01 -3.9065041e+02 
-7.2612270e+02 -9.0845790e+02 5.4773819e+01 
-1.7315472e+02 -2.5192662e+00 -4.4586779e+02 
-1.3389002e+02 -4.6534221e+00 -4.8963260e+02 
-9.6896984e+01 -6.7376130e+00 -5.2190862e+02 
-2.2547619e+02 -4.7264319e+02 -1.9091762e+02 
-6.1487668e+01 -8.7765602e+00 -5.4279893e+02 
-2.6966123e+01 -1.0773833e+01 -5.5237849e+02 
7.3657269e+00 -1.2735560e+01 -5.5071949e+02 
3.7220053e+02 2.5608349e+02 -2.4739503e+01 
7.1419366e+02 5.6748024e+02 -4.2995187e+01 
6.7344430e+02 6.3863770e+02 -4.0403427e+01 
6.4032123e+02 6.9853468e+02 -3.8048497e+01 
4.2195151e+01 -1.4670359e+01 -5.3789391e+02 
6.1315147e+02 7.4691096e+02 -3.5762626e+01 
-4.7106665e+02 -1.6802824e+02 2.6200972e+01 
5.9058782e+02 7.8353664e+02 -3.3420541e+01 
-9.0906224e+02 -4.0903729e+02 5.6121949e+01 
-8.6206597e+02 -5.1012022e+02 5.5057606e+01 
7.8184754e+01 -1.6588773e+01 -5.1397804e+02 
-8.2189352e+02 -5.9767611e+02 5.4227715e+01 
5.7133294e+02 8.0839894e+02 -3.0928675e+01 
-7.8712276e+02 -6.7154952e+02 5.3469926e+01 
5.5419506e+02 8.2165446e+02 -2.8221723e+01 
-7.5662690e+02 -7.3152473e+02 5.2660624e+01 
1.1596256e+02 -1.8504423e+01 -4.7903445e+02 
-7.2928114e+02 -7.7756028e+02 5.1704641e+01 
5.3823135e+02 8.2342886e+02 -2.5259241e+01 
1.5605995e+02 -2.0424845e+01 -4.3328304e+02 
-7.0400433e+02 -8.0976153e+02 5.0534669e+01 
5.2159805e+02 8.1511440e+02 -2.2032029e+01 
-6.7991226e+02 -8.2817151e+02 4.9105708e+01 
1.9948067e+02 -2.2374498e+01 -3.7548461e+02 
1.2397299e+02 4.1100116e+02 -1.1078693e+02 
-2.2784614e+02 4.3770854e+00 -2.4467123e+02 
-1.8643113e+02 2.1207993e+00 -3.1082087e+02 
-6.5502495e+02 -8.3432234e+02 4.7388745e+01 
-1.4894696e+02 -1.4886701e-02 -3.6435188e+02 
-1.1427637e+02 -2.0978494e+00 -4.0661995e+02 
-2.0153349e+02 -4.3353744e+02 -1.4563609e+02 
-8.1808880e+01 -4.1223528e+00 -4.3762871e+02 
-5.0861044e+01 -6.0932167e+00 -4.5748700e+02 
-2.0737755e+01 -8.0142748e+00 -4.6626683e+02 
9.2605929e+00 -9.8917506e+00 -4.6402798e+02 
3.3755589e+02 2.1090788e+02 -2.1166899e+01 
6.4678074e+02 4.7754963e+02 -3.5478112e+01 
6.0806929e+02 5.4990791e+02 -3.3105386e+01 
3.9825373e+01 -1.1734307e+01 -4.5082140e+02 
5.7707035e+02 6.1097396e+02 -3.0981461e+01 
5.5201733e+02 6.6047079e+02 -2.8939420e+01 
-4.2326322e+02 -1.3878142e+02 2.1494777e+01 
-8.1569941e+02 -3.4891686e+02 4.7361722e+01 
5.3149645e+02 6.9820822e+02 -2.6858004e+01 
-7.7177493e+02 -4.4772851e+02 4.6486176e+01 
7.1625919e+01 -1.3552672e+01 -4.2669270e+02 
-7.3476790e+02 -5.3323304e+02 4.5858003e+01 
5.1417333e+02 7.2424677e+02 -2.4649553e+01 
-7.0318910e+02 -6.0524864e+02 4.5317128e+01 
-6.7586111e+02 -6.6358042e+02 4.4744702e+01 
1.0529812e+02 -1.5360782e+01 -3.9166496e+02 
4.9885572e+02 7.3884468e+02 -2.2255778e+01 
-6.5163021e+02 -7.0823753e+02 4.4052009e+01 
4.8463022e+02 7.4227208e+02 -1.9643156e+01 
1.4138285e+02 -1.7166805e+01 -3.4588490e+02 
-6.2941645e+02 -7.3940078e+02 4.3178959e+01 
4.6980308e+02 7.3591078e+02 -1.6805751e+01 
-6.0835862e+02 -7.5722926e+02 4.2088464e+01 
1.8085471e+02 -1.8999974e+01 -2.8820792e+02 
1.1613531e+02 3.7292238e+02 -7.4497930e+01 
-1.9657750e+02 6.1369456e+00 -1.7586315e+02 
-5.8661921e+02 -7.6319549e+02 4.0752894e+01 
-1.5975167e+02 3.9390116e+00 -2.3993928e+02 
-1.2672592e+02 1.8616974e+00 -2.9172103e+02 
-9.6442451e+01 -1.5552218e-01 -3.3245367e+02 
-1.7923419e+02 -3.9629537e+02 -1.0517798e+02 
-6.8296468e+01 -2.1085963e+00 -3.6218592e+02 
-4.1609922e+01 -4.0024688e+00 -3.8103765e+02 
-1.5692077e+01 -5.8412129e+00 -3.8908164e+02 
1.0152723e+01 -7.6310150e+00 -3.8636748e+02 
3.0287986e+02 1.6948209e+02 -1.8014378e+01 
5.7935255e+02 3.9489209e+02 -2.8833927e+01 
5.4278850e+02 4.6810026e+02 -2.6670491e+01 
3.6614610e+01 -9.3803355e+00 -3.7292532e+02 
5.1403867e+02 5.2997735e+02 -2.4764692e+01 
4.9121556e+02 5.8023442e+02 -2.2950042e+01 
-3.7728284e+02 -1.1142334e+02 1.7283032e+01 
-7.2595957e+02 -2.9249865e+02 3.9536527e+01 
4.7282625e+02 6.1872625e+02 -2.1109418e+01 
-6.8504636e+02 -3.8893913e+02 3.8830007e+01 
6.4366513e+01 -1.1099806e+01 -3.4876869e+02 
-6.5115983e+02 -4.7228730e+02 3.8381500e+01 
4.5749419e+02 6.4558985e+02 -1.9161440e+01 
-6.2271941e+02 -5.4233417e+02 3.8032427e+01 
-5.9848199e+02 -5.9890962e+02 3.7668523e+01 
9.4051921e+01 -1.2803514e+01 -3.1387767e+02 
4.4402391e+02 6.6119142e+02 -1.7055292e+01 
-5.7725655e+02 -6.4207943e+02 3.7207722e+01 
4.3153073e+02 6.6596138e+02 -1.4764849e+01 
1.2622240e+02 -1.4500518e+01 -2.6832186e+02 
-5.5796068e+02 -6.7211062e+02 3.6597558e+01 
4.1847400e+02 6.6131422e+02 -1.2288732e+01 
-5.3975798e+02 -6.8929576e+02 3.5809181e+01 
1.6182107e+02 -1.6224073e+01 -2.1103079e+02 
1.0725762e+02 3.3676873e+02 -4.3052546e+01 
-1.6769416e+02 7.3220195e+00 -1.1596290e+02 
-5.2096010e+02 -6.9508742e+02 3.4817970e+01 
-1.3523346e+02 5.2031356e+00 -1.7784911e+02 
-1.0644085e+02 3.2025582e+00 -2.2777424e+02 
-8.0317647e+01 1.2662445e+00 -2.6689489e+02 
-1.5843234e+02 -3.6085913e+02 -6.9520543e+01 
-5.6261774e+01 -6.0322739e-01 -2.9531147e+02 
-3.3601306e+01 -2.4109654e+00 -3.1316151e+02 
-1.1656076e+01 -4.1612600e+00 -3.2052346e+02 
1.0255740e+01 -5.8600941e+00 -3.1743931e+02 
2.6833492e+02 1.3181500e+02 -1.5253887e+01 
5.1224999e+02 3.1951776e+02 -2.3005049e+01 
3.2813213e+01 -7.5153769e+00 -3.0391866e+02 
4.7797283e+02 3.9319929e+02 -2.1044384e+01 
4.5161279e+02 4.5550107e+02 -1.9346194e+01 
4.3113569e+02 5.0613998e+02 -1.7744394e+01 
-3.3309967e+02 -8.6068841e+01 1.3535060e+01 
-6.3980294e+02 -2.4000310e+02 3.2591116e+01 
-6.0186553e+02 -3.3394859e+02 3.2036335e+01 
5.6686912e+01 -9.1371960e+00 -2.7994053e+02 
4.1496472e+02 5.4502371e+02 -1.6126452e+01 
-5.7107760e+02 -4.1500685e+02 3.1747425e+01 
-5.4573980e+02 -4.8294806e+02 3.1566622e+01 
4.0168416e+02 5.7236228e+02 -1.4417780e+01 
-5.2453030e+02 -5.3763259e+02 3.1384198e+01 
8.2527631e+01 -1.0739469e+01 -2.4543747e+02 
3.9009620e+02 5.8862498e+02 -1.2575444e+01 
-5.0621514e+02 -5.7918547e+02 3.1124974e+01 
3.7934173e+02 5.9440972e+02 -1.0581087e+01 
1.1090128e+02 -1.2332291e+01 -2.0039670e+02 
-4.8970658e+02 -6.0796498e+02 3.0744393e+01 
3.6802960e+02 5.9120761e+02 -8.4390188e+00 
-4.7419252e+02 -6.2441143e+02 3.0221965e+01 
1.4271955e+02 -1.3952433e+01 -1.4380110e+02 
9.7537807e+01 3.0250886e+02 -1.6373832e+01 
-4.5813673e+02 -6.2999985e+02 2.9537325e+01 
-1.4121002e+02 8.0170477e+00 -6.4819309e+01 
-1.1287659e+02 5.9987469e+00 -1.2434013e+02 
-8.8077547e+01 4.0935766e+00 -1.7224882e+02 
-6.5867235e+01 2.2534609e+00 -2.0963630e+02 
-1.3899713e+02 -3.2716687e+02 -3.8626434e+01 
-4.5638951e+01 4.7977653e-01 -2.3666305e+02 
-2.6727434e+01 -1.2327480e+00 -2.5349260e+02 
-8.4730949e+00 -2.8886162e+00 -2.6021500e+02 
9.7760208e+00 -4.4934185e+00 -2.5686803e+02 
2.3408396e+02 9.7938237e+01 -1.2856919e+01 
4.4582494e+02 2.5146367e+02 -1.7935604e+01 
2.8671848e+01 -6.0540729e+00 -2.4344053e+02 
4.1402277e+02 3.2518334e+02 -1.6174505e+01 
3.9020833e+02 3.8746808e+02 -1.4675398e+01 
3.7218390e+02 4.3807874e+02 -1.3273270e+01 
-2.9069247e+02 -6.2839662e+01 1.0220897e+01 
-5.5720588e+02 -1.9165646e+02 2.6470562e+01 
-5.2224633e+02 -2.8294274e+02 2.6052895e+01 
4.8872531e+01 -7.5795321e+00 -2.1987399e+02 
3.5830038e+02 4.7698924e+02 -1.1861202e+01 
-4.9455937e+02 -3.6153444e+02 2.5905330e+01 
-4.7230061e+02 -4.2720047e+02 2.5870643e+01 
3.4712159e+02 5.0446917e+02 -1.0372172e+01 
-4.5406383e+02 -4.7984077e+02 2.5843931e+01 
7.1035700e+01 -9.0829878e+00 -1.8604730e+02 
3.3745688e+02 5.2106687e+02 -8.7714847e+00 
-4.3857434e+02 -5.1963612e+02 2.5757272e+01 
3.2846812e+02 5.2753692e+02 -7.0488175e+00 
9.5749393e+01 -1.0575569e+01 -1.4185858e+02 
-4.2473959e+02 -5.4702994e+02 2.5574161e+01 
-4.1176873e+02 -5.6261543e+02 2.5282284e+01 
3.1890033e+02 5.2548590e+02 -5.2151638e+00 
1.2389936e+02 -1.2097203e+01 -8.6322084e+01 
-3.9827410e+02 -5.6793266e+02 2.4866250e+01 
8.7164288e+01 2.7011341e+02 5.6451327e+00 
-1.1717420e+02 8.3019661e+00 -2.2217557e+01 
-9.2714222e+01 6.4059282e+00 -7.9131274e+01 
-7.1655821e+01 4.6143457e+00 -1.2480471e+02 
-5.3090213e+01 2.8850619e+00 -1.6028847e+02 
-1.2081248e+02 -2.9515624e+02 -1.2437475e+01 
-3.6392364e+01 1.2187766e+00 -1.8581366e+02 
-2.0904421e+01 -3.8992882e-01 -2.0157891e+02 
-6.0024577e+00 -1.9457329e+00 -2.0769263e+02 
8.9121887e+00 -3.4536854e+00 -2.0419155e+02 
2.0030563e+02 6.7927392e+01 -1.0794201e+01 
2.4440658e+01 -4.9192948e+00 -1.9104430e+02 
3.8047425e+02 1.9082050e+02 -1.3573069e+01 
3.5140760e+02 2.6402995e+02 -1.2011738e+01 
3.3030525e+02 3.2575542e+02 -1.0704608e+01 
-2.5005264e+02 -4.1875230e+01 7.3126799e+00 
-4.7817951e+02 -1.4770362e+02 2.1121418e+01 
3.1481033e+02 3.7587129e+02 -9.4895578e+00 
-4.4625459e+02 -2.3609556e+02 2.0828873e+01 
4.1213075e+01 -6.3496321e+00 -1.6815132e+02 
-4.2169390e+02 -3.1197562e+02 2.0805742e+01 
3.0323943e+02 4.1443858e+02 -8.2670366e+00 
-4.0249019e+02 -3.7515157e+02 2.0895902e+01 
2.9418054e+02 4.4176203e+02 -6.9787779e+00 
-3.8716304e+02 -4.2557815e+02 2.1000153e+01 
5.9892685e+01 -7.7564425e+00 -1.3533136e+02 
2.8647622e+02 4.5841668e+02 -5.5987211e+00 
-3.7441447e+02 -4.6347936e+02 2.1058423e+01 
8.1103302e+01 -9.1515323e+00 -9.2384615e+01 
-3.6315585e+02 -4.8935893e+02 2.1042307e+01 
2.7930718e+02 4.6527059e+02 -4.1246632e+00 
-3.5261313e+02 -5.0394981e+02 2.0947069e+01 
2.7152999e+02 4.6406816e+02 -2.5753112e+00 
1.0572007e+02 -1.0577712e+01 -3.8332610e+01 
-3.4153414e+02 -5.0889361e+02 2.0762319e+01 
7.6320758e+01 2.3956353e+02 2.3158387e+01 
-9.5664669e+01 8.2526121e+00 1.2150594e+01 
-7.4803912e+01 6.4995838e+00 -4.1844881e+01 
-5.7220432e+01 4.8379572e+00 -8.5003457e+01 
-1.0377779e+02 -2.6477035e+02 9.1363480e+00 
-4.2009999e+01 3.2324086e+00 -1.1836543e+02 
-2.8508311e+01 1.6837065e+00 -1.4224351e+02 
-1.6067191e+01 1.8656032e-01 -1.5687969e+02 
-4.1192384e+00 -1.2639636e+00 -1.6240478e+02 
7.8505876e+00 -2.6723472e+00 -1.5885807e+02 
2.0361827e+01 -4.0423931e+00 -1.4618859e+02 
1.6722136e+02 4.1930058e+01 -9.0349793e+00 
3.1669306e+02 1.3776833e+02 -9.8702828e+00 
2.9071977e+02 2.0972398e+02 -8.5122488e+00 
2.7249820e+02 2.7018345e+02 -7.3908916e+00 
-2.1119912e+02 -2.3349355e+01 4.7866403e+00 
-4.0280230e+02 -1.0842743e+02 1.6493183e+01 
2.5955084e+02 3.1923876e+02 -6.3499168e+00 
-3.7404546e+02 -1.9356981e+02 1.6315970e+01 
3.3994471e+01 -5.3787133e+00 -1.2425554e+02 
-3.5265375e+02 -2.6638404e+02 1.6400862e+01 
2.5023701e+02 3.5707640e+02 -5.3000353e+00 
-3.3645989e+02 -3.2678765e+02 1.6594694e+01 
2.4324829e+02 3.8399912e+02 -4.1933095e+00 
-3.2394520e+02 -3.7481376e+02 1.6805678e+01 
4.9413806e+01 -6.6905518e+00 -9.2812230e+01 
-3.1383120e+02 -4.1070758e+02 1.6982546e+01 
2.3751417e+02 4.0052463e+02 -3.0128254e+00 
6.7299643e+01 -7.9897510e+00 -5.1552036e+01 
-3.0505804e+02 -4.3498122e+02 1.7104936e+01 
2.3224458e+02 4.0754057e+02 -1.7644982e+00 
-2.9686631e+02 -4.4846196e+02 1.7174758e+01 
2.2637460e+02 4.0691173e+02 -4.7581799e-01 
8.8547724e+01 -9.3213361e+00 5.2481420e-01 
-2.8811514e+02 -4.5291205e+02 1.7185737e+01 
6.5193187e+01 2.1086369e+02 3.6393929e+01 
-7.6773950e+01 7.9417310e+00 3.8732226e+01 
-5.9209862e+01 6.3495156e+00 -1.1969439e+01 
-4.4821195e+01 4.8305730e+00 -5.2283012e+01 
-8.7810275e+01 -2.3596717e+02 2.6234946e+01 
-3.2653350e+01 3.3583075e+00 -8.3273241e+01 
-2.1976168e+01 1.9351150e+00 -1.0534300e+02 
-1.2158145e+01 5.5603350e-01 -1.1877697e+02 
-2.7141978e+00 -7.8415937e-01 -1.2372794e+02 
6.7541898e+00 -2.0897624e+00 -1.2023699e+02 
1.6651156e+01 -3.3631660e+00 -1.0823921e+02 
1.3513373e+02 2.0193630e+01 -7.5455660e+00 
2.5514824e+02 9.2611418e+01 -6.7874010e+00 
2.3274049e+02 1.6226802e+02 -5.6393104e+00 
2.1755499e+02 2.2050624e+02 -4.6977100e+00 
-1.7420409e+02 -7.4913290e+00 2.6258085e+00 
-3.3127096e+02 -7.4172736e+01 1.2539804e+01 
-3.0591509e+02 -1.5551764e+02 1.2469314e+01 
2.7478623e+01 -4.6061015e+00 -8.7557320e+01 
2.0708465e+02 2.6777991e+02 -3.8170165e+00 
-2.8774286e+02 -2.2474682e+02 1.2645009e+01 
1.9984854e+02 3.0444720e+02 -2.9210407e+00 
-2.7446297e+02 -2.8199160e+02 1.2920462e+01 
-2.6459275e+02 -3.2740483e+02 1.3213871e+01 
3.9894361e+01 -5.8244840e+00 -5.7883476e+01 
1.9476460e+02 3.3078741e+02 -1.9748807e+00 
-2.5695015e+02 -3.6122015e+02 1.3484066e+01 
1.9093960e+02 3.4713974e+02 -9.7102352e-01 
5.4659150e+01 -7.0286591e+00 -1.8798097e+01 
-2.5055625e+02 -3.8387687e+02 1.3718700e+01 
1.8765382e+02 3.5425466e+02 7.6716103e-02 
-2.4467632e+02 -3.9620164e+02 1.3925171e+01 
1.8389717e+02 3.5402628e+02 1.1303135e+00 
7.2742855e+01 -8.2648113e+00 3.0752853e+01 
-2.3824832e+02 -4.0005574e+02 1.4099712e+01 
5.3978830e+01 1.8405863e+02 4.5692508e+01 
-6.0583710e+01 7.4396761e+00 5.8178708e+01 
-4.5972587e+01 6.0201694e+00 1.1186610e+01 
-3.4478346e+01 4.6499307e+00 -2.5934551e+01 
-7.2849570e+01 -2.0873393e+02 3.9076250e+01 
-2.5012755e+01 3.3155552e+00 -5.4314739e+01 
-1.6755416e+01 2.0225968e+00 -7.4437974e+01 
-9.1075258e+00 7.6699896e-01 -8.6616683e+01 
-1.6937063e+00 -4.5704726e-01 -9.1010019e+01 
5.7429935e+00 -1.6549377e+00 -8.7659896e+01 
1.3465130e+01 -2.8289935e+00 -7.6493664e+01 
1.0447981e+02 3.0845657e+00 -6.2871577e+00 
1.9676521e+02 5.5785969e+01 -4.2931457e+00 
1.7849833e+02 1.2168079e+02 -3.3636291e+00 
-1.3922896e+02 5.3954017e+00 8.2316759e-01 
1.6646709e+02 1.7641499e+02 -2.5960121e+00 
-2.6396925e+02 -4.5365149e+01 9.2207139e+00 
-2.4236220e+02 -1.2207974e+02 9.2474369e+00 
2.1865904e+01 -3.9784782e+00 -5.7318311e+01 
1.5829173e+02 2.2095147e+02 -1.8605879e+00 
-2.2745148e+02 -1.8696857e+02 9.4944571e+00 
1.5280593e+02 2.5590239e+02 -1.0989752e+00 
-2.1690908e+02 -2.4051783e+02 9.8274725e+00 
-2.0940156e+02 -2.8304878e+02 1.0178580e+01 
3.1575581e+01 -5.1050420e+00 -2.9784076e+01 
1.4929486e+02 2.8149679e+02 -2.8892204e-01 
-2.0396310e+02 -3.1476833e+02 1.0517681e+01 
1.4718135e+02 2.9781841e+02 5.6542895e-01 
4.3457277e+01 -6.2160545e+00 6.6294716e+00 
-1.9978406e+02 -3.3592841e+02 1.0840480e+01 
1.4591122e+02 3.0523950e+02 1.4434136e+00 
-1.9619511e+02 -3.4720009e+02 1.1159206e+01 
1.4455722e+02 3.0546628e+02 2.2954371e+00 
5.8636628e+01 -7.3556951e+00 5.3069161e+01 
-1.9219000e+02 -3.5044855e+02 1.1470510e+01 
4.2896996e+01 1.5925360e+02 5.1559558e+01 
-4.7124113e+01 6.8151921e+00 7.1422521e+01 
-3.5063663e+01 5.5680668e+00 2.8537509e+01 
-5.8864613e+01 -1.8310632e+02 4.7996569e+01 
-2.6130424e+01 4.3430197e+00 -5.1092082e+00 
-1.8991821e+01 3.1440630e+00 -3.0733268e+01 
-1.2729304e+01 1.9824097e+00 -4.8863041e+01 
-6.8076696e+00 8.5626946e-01 -5.9790199e+01 
-9.7931767e-01 -2.4320908e-01 -6.3658211e+01 
4.8688646e+00 -1.3246493e+00 -6.0502516e+01 
1.0854316e+01 -2.3928375e+00 -5.0255119e+01 
7.5895860e+01 -8.9548167e+00 -5.2128762e+00 
1.4281423e+02 2.7801840e+01 -2.3660286e+00 
1.2928161e+02 8.7953476e+01 -1.6613589e+00 
-1.0657333e+02 1.4923972e+01 -6.1516882e-01 
-2.0154715e+02 -2.2500945e+01 6.5004393e+00 
1.2044933e+02 1.3753485e+02 -1.0607433e+00 
-1.8414099e+02 -9.3369845e+01 6.6109205e+00 
1.7239764e+01 -3.4476691e+00 -3.2734700e+01 
-1.7250254e+02 -1.5286472e+02 6.9054121e+00 
1.1428162e+02 1.7810998e+02 -4.5836810e-01 
-1.6441833e+02 -2.0196708e+02 7.2697937e+00 
1.1009069e+02 2.1056169e+02 1.8873350e-01 
-1.5885450e+02 -2.4124924e+02 7.6527872e+00 
2.4591522e+01 -4.4854474e+00 -7.6036561e+00 
1.0765439e+02 2.3519626e+02 8.8648789e-01 
-1.5519826e+02 -2.7087167e+02 8.0378634e+00 
1.0683319e+02 2.5176547e+02 1.6258761e+00 
3.3878358e+01 -5.5078886e+00 2.5718287e+01 
-1.5294656e+02 -2.9083293e+02 8.4269513e+00 
1.0744569e+02 2.6009087e+02 2.3766093e+00 
-1.5159039e+02 -3.0141499e+02 8.8375621e+00 
4.6490127e+01 -6.5547558e+00 6.8488255e+01 
1.0880302e+02 2.6128218e+02 3.0757855e+00 
-1.5020820e+02 -3.0426719e+02 9.2674980e+00 
3.2199112e+01 1.3661437e+02 5.4711721e+01 
-3.6314320e+01 6.1314978e+00 7.9740052e+01 
-2.6323082e+01 5.0384543e+00 4.1194085e+01 
-4.5863059e+01 -1.5919204e+02 5.3504217e+01 
-1.9567860e+01 3.9399953e+00 1.1089483e+01 
-1.4344110e+01 2.8656565e+00 -1.1855756e+01 
-9.6621523e+00 1.8362436e+00 -2.8101178e+01 
-5.0907377e+00 8.4720192e-01 -3.7866115e+01 
-5.0622641e-01 -1.1222520e-01 -4.1263118e+01 
4.0956014e+00 -1.0603446e+00 -3.8318537e+01 
8.7211421e+00 -2.0114323e+00 -2.8975103e+01 
5.0257554e+01 -1.5468113e+01 -4.2640010e+00 
9.4953861e+01 9.0304772e+00 -9.8908403e-01 
8.6575218e+01 6.0930954e+01 -5.0828235e-01 
-7.6732694e+01 2.0673326e+01 -1.6680359e+00 
-1.4499621e+02 -6.0764992e+00 4.3442231e+00 
-1.3226667e+02 -6.9419128e+01 4.5178400e+00 
1.3503722e+01 -2.9660830e+00 -1.3083500e+01 
8.0802326e+01 1.0342509e+02 -6.3901809e-02 
-1.2384721e+02 -1.2214598e+02 4.8315005e+00 
7.6330746e+01 1.3855040e+02 4.1567324e-01 
-1.1784804e+02 -1.6581776e+02 5.1968200e+00 
7.2981338e+01 1.6743642e+02 9.5155812e-01 
-1.1369274e+02 -2.0127064e+02 5.5869951e+00 
1.8899713e+01 -3.9206896e+00 9.6237243e+00 
7.1016755e+01 1.9053728e+02 1.5580033e+00 
-1.1124363e+02 -2.2875212e+02 5.9951642e+00 
7.0854621e+01 2.0765498e+02 2.2182099e+00 
2.5949600e+01 -4.8672701e+00 3.9666608e+01 
-1.1042300e+02 -2.4794496e+02 6.4322459e+00 
7.2858808e+01 2.1786483e+02 2.9020348e+00 
-1.1109210e+02 -2.5858359e+02 6.9195566e+00 
3.6432268e+01 -5.8346825e+00 7.8388668e+01 
7.7064458e+01 2.2124917e+02 3.5307140e+00 
-1.1257193e+02 -2.6169660e+02 7.4601824e+00 
2.2191029e+01 1.1632831e+02 5.6080736e+01 
-2.7871712e+01 5.4438542e+00 8.4626513e+01 
-1.9382090e+01 4.4510474e+00 5.0231073e+01 
-3.3901079e+01 -1.3717437e+02 5.6327284e+01 
-1.4372115e+01 3.4431331e+00 2.3270611e+01 
-1.0642693e+01 2.4806933e+00 2.6112753e+00 
-7.2021320e+00 1.5852673e+00 -1.1999228e+01 
-3.7376183e+00 7.5543353e-01 -2.0728091e+01 
-2.1979614e-01 -4.0632283e-02 -2.3706005e+01 
3.3135468e+00 -8.3026714e-01 -2.0980789e+01 
6.8255311e+00 -1.6370637e+00 -1.2475962e+01 
2.8768749e+01 -1.6378006e+01 -3.3721971e+00 
5.5203484e+01 -7.1071598e-01 -1.6175453e-01 
-5.0431072e+01 2.2244356e+01 -2.3005949e+00 
-9.5680232e+01 3.6151888e+00 2.7125834e+00 
5.1803994e+01 4.0103508e+01 1.3109197e-01 
-8.7946243e+01 -5.0058199e+01 2.9171459e+00 
1.0349679e+01 -2.4827045e+00 1.9725856e+00 
4.8679921e+01 7.3480847e+01 4.4484976e-01 
-8.2525327e+01 -9.4411544e+01 3.2168642e+00 
4.5549765e+01 1.0162737e+02 8.0194046e-01 
-7.8229817e+01 -1.3144890e+02 3.5546670e+00 
4.2883857e+01 1.2555645e+02 1.2136553e+00 
-7.4965311e+01 -1.6224484e+02 3.9189304e+00 
1.4214972e+01 -3.3583042e+00 2.2576015e+01 
4.1032490e+01 1.4597422e+02 1.7023696e+00 
-7.3055639e+01 -1.8720516e+02 4.3300309e+00 
4.0675737e+01 1.6320826e+02 2.3128041e+00 
1.9457080e+01 -4.2531526e+00 4.9646253e+01 
-7.2968860e+01 -2.0609037e+02 4.7993002e+00 
4.3144383e+01 1.7649595e+02 3.0082020e+00 
-7.5110431e+01 -2.1791232e+02 5.3551065e+00 
2.8361442e+01 -5.1816017e+00 8.4388453e+01 
4.9784978e+01 1.8421723e+02 3.6891609e+00 
-7.9539748e+01 -2.2265825e+02 6.0173574e+00 
1.3246944e+01 9.8242111e+01 5.6508797e+01 
-2.1166500e+01 4.7603862e+00 8.7163127e+01 
-2.3107702e+01 -1.1727688e+02 5.7418235e+01 
-1.3580219e+01 3.7777579e+00 5.5796869e+01 
-9.9132640e+00 2.8096731e+00 3.0984961e+01 
-7.3814396e+00 1.9501450e+00 1.2137618e+01 
-4.9867977e+00 1.2318590e+00 -9.3536894e-01 
-2.5462783e+00 5.9251523e-01 -8.5821775e+00 
-7.0863080e-02 -9.0197971e-03 -1.1128556e+01 
2.4176973e+00 -6.0735075e-01 -8.6916273e+00 
4.8983048e+00 -1.2342097e+00 -1.1263241e+00 
1.2718775e+01 -1.2269392e+01 -2.4391345e+00 
-2.8701394e+01 1.9621313e+01 -2.4738621e+00 
2.5610285e+01 -2.8486306e+00 1.5443411e-01 
-5.5299141e+01 6.8473450e+00 1.5315784e+00 
2.6154774e+01 2.4243859e+01 3.2002633e-01 
-5.2321274e+01 -3.4744732e+01 1.7387107e+00 
7.3626103e+00 -1.9217668e+00 1.1924927e+01 
2.4724075e+01 4.7046392e+01 5.4627031e-01 
-4.9436462e+01 -6.9062233e+01 2.0000202e+00 
2.2737739e+01 6.6743993e+01 7.7909018e-01 
-4.6442439e+01 -9.8254995e+01 2.2774431e+00 
2.0890328e+01 8.4023952e+01 1.0268838e+00 
-4.3863654e+01 -1.2327409e+02 2.5831997e+00 
1.0002454e+01 -2.7202499e+00 3.0850177e+01 
1.9391991e+01 9.9924365e+01 1.3416749e+00 
-4.2086174e+01 -1.4478947e+02 2.9468589e+00 
1.3851085e+01 -3.6019947e+00 5.5891901e+01 
1.8466114e+01 1.1545106e+02 1.8008179e+00 
-4.1823635e+01 -1.6311824e+02 3.4340705e+00 
1.9716594e+01 1.3118439e+02 2.5598031e+00 
-4.4457586e+01 -1.7747599e+02 4.0675653e+00 
2.1786734e+01 -4.5597295e+00 8.7702116e+01 
2.7378066e+01 1.4566669e+02 3.5179347e+00 
-5.1387832e+01 -1.8615199e+02 4.8789675e+00 
5.9422361e+00 8.0719244e+01 5.5408190e+01 
-1.3701317e+01 -9.9397797e+01 5.7645869e+01 
-1.4950240e+01 4.0116046e+00 8.5059448e+01 
-7.9706653e+00 2.8453856e+00 5.4783394e+01 
-5.7375613e+00 1.8965101e+00 3.1680248e+01 
-4.2936499e+00 1.2713241e+00 1.5206222e+01 
-2.8720279e+00 7.9119242e-01 4.4257159e+00 
-1.4471691e+00 3.8147919e-01 -1.6339611e+00 
-1.1983075e-02 1.1032725e-05 -3.5959720e+00 
1.4318710e+00 -3.8029344e-01 -1.6582501e+00 
2.8837516e+00 -7.8486676e-01 4.4036943e+00 
-1.2647053e+01 1.3384296e+01 -2.1465922e+00 
3.2736652e+00 -5.1750680e+00 -1.4708379e+00 
-2.5562046e+01 5.0239882e+00 7.1339445e-01 
7.6527611e+00 -1.0276183e+00 -2.0953854e-02 
-2.6302327e+01 -2.2289013e+01 8.9632693e-01 
4.3541761e+00 -1.2502201e+00 1.5244728e+01 
9.1939707e+00 1.1579712e+01 2.2850767e-01 
-2.4989017e+01 -4.5477310e+01 1.1086543e+00 
8.6639432e+00 2.3100362e+01 3.6184536e-01 
-2.3079265e+01 -6.5662785e+01 1.3030233e+00 
7.8701058e+00 3.3165423e+01 4.3416928e-01 
-2.1292618e+01 -8.3481843e+01 1.4996808e+00 
5.8757697e+00 -1.8394595e+00 3.1880492e+01 
7.0213839e+00 4.2246006e+01 5.1012507e-01 
-1.9853762e+01 -9.9956745e+01 1.7524301e+00 
6.2300966e+00 5.1181641e+01 6.2533578e-01 
8.2417735e+00 -2.7258774e+00 5.5306561e+01 
-1.9000453e+01 -1.1610550e+02 2.1388415e+00 
5.6123346e+00 6.1224840e+01 8.2197617e-01 
-2.0381605e+01 -1.3253635e+02 2.8500528e+00 
5.3309172e+00 7.4004113e+01 1.2183533e+00 
1.5526756e+01 -3.8868144e+00 8.6120220e+01 
-2.8357537e+01 -1.4774503e+02 3.9348743e+00 
9.7228449e+00 9.1016138e+01 2.3662902e+00 
-6.1339925e+00 -8.1947876e+01 5.6441155e+01 
1.3611999e+00 5.4792007e+01 4.3948117e+01 
-6.9542020e+00 2.4476485e+00 6.3784678e+01 
-2.8549017e+00 1.2322986e+00 3.8115377e+01 
-2.1954083e+00 7.9550971e-01 2.1236588e+01 
-1.6257319e+00 5.3096121e-01 1.0564391e+01 
-1.0845280e+00 3.2933966e-01 4.0966222e+00 
-5.4217812e-01 1.5817141e-01 6.1407872e-01 
7.8668189e-04 5.3629100e-04 -4.8628599e-01 
5.4699294e-01 -1.5687841e-01 6.1971154e-01 
1.0997508e+00 -3.2688777e-01 4.1257452e+00 
-3.2573294e+00 5.3777611e+00 -1.4207129e+00 
-7.6349325e+00 1.4512033e+00 7.6965271e-02 
-6.6799045e+01 -4.0609470e+02 3.0724451e+01 
7.0168364e+00 -9.6746821e+02 -2.3627446e+01 
-9.2193305e+00 -1.1183382e+01 3.4770602e-01 
1.6608725e+00 -5.2441664e-01 1.0658501e+01 
1.5109305e+00 -9.6824107e+02 -2.3590184e+01 
-8.7219332e+00 -2.2820977e+01 4.7766887e-01 
7.3012847e-01 -8.9580427e+02 -2.3303598e+01 
-7.9547665e+00 -3.3056963e+01 5.4023781e-01 
6.7219458e-01 -8.2957786e+02 -2.7110394e+01 
-7.1304764e+00 -4.2344002e+01 6.0239315e-01 
2.2656743e+00 -7.7680654e-01 2.1474890e+01 
6.5307867e-01 -7.8015567e+02 -3.4056865e+01 
-6.3650308e+00 -5.1522106e+01 7.0000058e-01 
7.0284918e-01 -7.5566839e+02 -4.4318042e+01 
2.9876149e+00 -1.1825973e+00 3.8646763e+01 
-5.7813087e+00 -6.1862368e+01 8.7308311e-01 
9.9572956e-01 -7.7192904e+02 -5.8980092e+01 
-5.5554372e+00 -7.5044888e+01 1.2373468e+00 
1.9273734e+00 -8.6757522e+02 -7.9933957e+01 
7.2772444e+00 -2.3914357e+00 6.4884911e+01 
-1.0145802e+01 -9.2647814e+01 2.4306982e+00 
-5.4975360e+00 -1.0962318e+03 -1.4435079e+02 
-1.4110516e+00 -5.5844135e+01 4.4829457e+01 
-3.8324907e+00 -1.8928200e+02 -1.8165434e+02 
5.0241442e+00 -1.5793198e+02 -9.4737230e+02 
-2.1674933e+00 -9.8348493e+01 -5.7338802e+02 
-8.0923688e-01 -8.0878611e+01 -3.6202313e+02 
-3.7988611e-01 -6.9414433e+01 -2.3335713e+02 
-2.1724221e-01 -6.2247593e+01 -1.4141969e+02 
-1.2202490e-01 -5.8224443e+01 -6.6974726e+01 
-5.8741923e-02 -5.6944377e+01 3.8513623e-01 
-1.5501327e-02 -5.8284945e+01 6.8321674e+01 
5.1138316e-03 -6.2378080e+01 1.4462283e+02 
-6.7087755e+01 -4.0367438e+02 -3.0856905e+01 
5.9380020e+00 -9.6542799e+02 2.3450345e+01 
7.5727745e-02 -9.7229099e+02 2.3716441e+01 
-1.9658539e-02 -6.9631449e+01 2.4013898e+02 
-6.1392837e-01 -9.0596086e+02 2.3466297e+01 
-5.7052093e-01 -8.4511895e+02 2.7272893e+01 
-4.9182469e-01 -8.0064498e+02 3.4234105e+01 
-2.4948600e-01 -8.1199741e+01 3.7513232e+02 
-3.7236654e-01 -7.8124759e+02 4.4538773e+01 
-1.2826775e+00 -9.8737345e+01 5.9796654e+02 
-8.6392456e-02 -8.0377005e+02 5.9279911e+01 
7.3217867e-01 -9.0895381e+02 8.0323896e+01 
7.7259777e+00 -1.5865141e+02 9.9276229e+02 
-8.4352689e+00 -1.1533528e+03 1.4529300e+02 
-3.6356838e+00 -2.2697634e+02 2.1502207e+02 
VON_MISES_STRESS_TOP_SURFACE 1 3535  float
2.5198581e+02
3.9419278e+02
4.8994861e+02
5.8328357e+02
6.8426880e+02
9.6551337e+02
1.0345139e+03
8.1527112e+02
1.1974586e+03
9.8805035e+02
1.6402247e+03
1.7066445e+03
1.0940486e+03
1.7996782e+03
1.4055201e+03
1.2677958e+03
2.9452075e+03
2.8136545e+03
1.3589022e+03
1.8922422e+03
1.6082211e+03
2.6177759e+03
1.9819767e+03
5.3602637e+03
1.5013099e+03
2.4835596e+03
1.5785470e+03
4.2857725e+03
3.4235625e+03
1.7750962e+03
2.4190005e+03
2.0588533e+03
3.0532686e+03
5.1480444e+03
1.6810415e+03
4.6338447e+03
1.7450576e+03
1.8989978e+03
3.9312019e+03
2.8466724e+03
2.3863071e+03
2.1148760e+03
3.4928960e+03
4.5379727e+03
1.8104517e+03
2.7089172e+03
4.4171782e+03
1.8628796e+03
3.1993311e+03
2.3615259e+03
1.9835431e+03
4.1089170e+03
2.1486150e+03
3.7573396e+03
2.9823232e+03
2.6051714e+03
4.1267271e+03
1.8978428e+03
3.4367168e+03
4.2305083e+03
1.9407828e+03
2.3354929e+03
4.1468032e+03
2.0359126e+03
2.8141082e+03
2.1630940e+03
3.8666416e+03
2.5199868e+03
3.1735723e+03
3.5436299e+03
2.3057195e+03
3.8079543e+03
1.9524185e+03
4.1406016e+03
1.9879148e+03
4.1613438e+03
2.6790525e+03
2.9629373e+03
2.0637039e+03
3.2633521e+03
2.4462021e+03
3.8506626e+03
2.1626819e+03
3.5263909e+03
2.2725720e+03
2.7931606e+03
3.0332615e+03
4.3604126e+03
1.9824749e+03
2.5675300e+03
4.4180317e+03
4.6590024e+03
2.0123070e+03
4.4190015e+03
4.1075142e+03
3.7518613e+03
2.0735796e+03
3.8968330e+03
3.7455461e+03
2.3804431e+03
3.2465874e+03
3.4870122e+03
3.6984373e+03
3.2427964e+03
2.1516182e+03
3.2419299e+03
3.4579019e+03
2.8474385e+03
3.1328025e+03
3.1912920e+03
2.6551003e+03
3.3603193e+03
2.8801292e+03
2.2373186e+03
3.1524729e+03
2.8944719e+03
3.0193391e+03
2.4737556e+03
2.9619780e+03
2.9481631e+03
2.8463918e+03
1.9948362e+03
2.0204410e+03
2.7907207e+03
3.0928611e+03
2.6100339e+03
2.3211682e+03
2.0708982e+03
2.7552256e+03
2.9328855e+03
2.6331572e+03
2.6973391e+03
2.7719573e+03
2.6212600e+03
2.8375859e+03
2.5416731e+03
2.1334348e+03
2.6463550e+03
2.6509978e+03
2.5759194e+03
2.8871294e+03
2.4009592e+03
2.3939207e+03
2.2013179e+03
2.7719573e+03
2.4281489e+03
2.6433877e+03
2.4375898e+03
2.5122957e+03
2.5450613e+03
1.9948219e+03
2.5458677e+03
2.6923879e+03
2.0173077e+03
2.4225981e+03
2.5755234e+03
2.2675625e+03
2.0597498e+03
2.2323464e+03
2.7275527e+03
2.4476516e+03
2.6504229e+03
2.4446863e+03
2.2617832e+03
2.4618696e+03
2.3896204e+03
2.2846033e+03
2.1108569e+03
2.5480049e+03
2.3253928e+03
2.2894758e+03
2.4672732e+03
2.1656692e+03
2.3832310e+03
2.3483167e+03
2.5756646e+03
2.0914980e+03
2.6021792e+03
2.4759668e+03
2.5559666e+03
2.2780984e+03
2.3972319e+03
2.1221177e+03
2.4748428e+03
2.1542290e+03
2.2190955e+03
1.9864341e+03
2.3690779e+03
2.0066274e+03
2.3058508e+03
2.0431534e+03
2.4076506e+03
2.1728325e+03
2.3318318e+03
2.2559109e+03
2.0858723e+03
2.1760393e+03
2.3473408e+03
2.2662043e+03
1.9689315e+03
2.5019412e+03
2.4810237e+03
2.4803904e+03
2.0012150e+03
2.0413386e+03
2.2285259e+03
2.2669309e+03
2.3939543e+03
2.4166462e+03
2.1311506e+03
2.1671555e+03
2.2904324e+03
2.3608582e+03
2.0696648e+03
2.3029080e+03
2.1753132e+03
1.2673750e+02
1.9726041e+03
1.9911072e+03
2.0731557e+02
1.9787262e+02
2.0820503e+03
2.3082063e+03
2.2002388e+03
2.4141771e+02
2.1505737e+03
3.4946716e+02
3.1927740e+02
1.8570757e+03
2.4204819e+03
2.0232773e+03
2.2333838e+03
2.4183687e+03
3.3329355e+02
3.5748630e+02
1.8935669e+03
2.4035042e+03
1.9430511e+03
4.0745551e+02
2.3686851e+03
2.0598728e+03
4.9301834e+02
4.2836932e+02
2.2148059e+03
2.0810171e+03
4.3381366e+02
4.9515076e+02
2.2571753e+03
2.3258079e+03
2.3226433e+03
4.8202896e+02
5.2287695e+02
1.9785250e+03
2.0982463e+03
6.4247388e+02
5.2495697e+02
2.1304575e+03
2.1737405e+03
5.2786462e+02
6.4363867e+02
5.7156873e+02
5.6174115e+02
1.9946082e+03
6.5995331e+02
2.2764551e+03
2.0710745e+03
2.2052361e+03
2.2467539e+03
8.0374652e+02
6.1084991e+02
1.7463110e+03
2.3532534e+03
2.1357771e+03
6.3051471e+02
6.8913806e+02
2.3663440e+03
6.1270312e+02
1.7946785e+03
8.0488788e+02
1.9959343e+03
1.9554292e+03
1.8602159e+03
2.2299854e+03
2.3393271e+03
8.1314148e+02
6.3785010e+02
2.3279363e+03
1.9726752e+03
7.2732159e+02
2.1097415e+03
2.0016421e+03
6.9136267e+02
2.1501614e+03
8.2627307e+02
1.8993046e+03
2.2901902e+03
2.0564072e+03
2.1699314e+03
9.8250592e+02
6.8738385e+02
2.2686653e+03
6.8848077e+02
9.8315332e+02
2.0337948e+03
1.9885697e+03
7.0768237e+02
9.8279376e+02
2.1816316e+03
7.7008954e+02
8.4511615e+02
1.9117991e+03
2.2496543e+03
7.5012476e+02
2.0672117e+03
9.7986267e+02
1.6179612e+03
2.2969978e+03
2.0901272e+03
1.7050151e+03
1.1838250e+03
7.5587115e+02
2.0399646e+03
2.3219124e+03
2.1987227e+03
2.2070530e+03
8.6910687e+02
7.5628003e+02
1.9098990e+03
1.1844001e+03
2.2924565e+03
8.1444995e+02
1.7990759e+03
9.7871106e+02
1.1726787e+03
2.1296475e+03
7.7121887e+02
1.9767252e+03
2.2856106e+03
2.1000505e+03
1.8312019e+03
2.2617078e+03
8.0569586e+02
1.1477413e+03
1.9363779e+03
8.9774908e+02
9.8390155e+02
1.9014355e+03
1.9526768e+03
2.1615300e+03
1.4112986e+03
8.1761414e+02
1.8312646e+03
2.2261602e+03
2.2202935e+03
1.9792885e+03
8.5925732e+02
1.1245161e+03
8.1748322e+02
1.4191139e+03
2.1305283e+03
2.0235586e+03
8.2942297e+02
1.3811028e+03
1.9629374e+03
2.0723616e+03
2.0082401e+03
9.9702704e+02
2.1870286e+03
1.4740651e+03
2.2493318e+03
8.5834088e+02
1.8209821e+03
1.3254249e+03
2.2833999e+03
1.1117775e+03
2.1118472e+03
9.3045978e+02
1.8897682e+03
1.6326726e+03
2.0381381e+03
2.2609844e+03
1.7646847e+03
2.1573000e+03
1.2808870e+03
9.0422534e+02
1.6803789e+03
8.7383844e+02
2.2401560e+03
1.7787328e+03
1.6739235e+03
8.7342670e+02
2.2360779e+03
1.8071558e+03
2.1439915e+03
1.0178203e+03
1.5968417e+03
2.0677090e+03
1.1111765e+03
8.8344397e+02
1.9489327e+03
2.0082446e+03
2.0566338e+03
2.2049253e+03
1.2539667e+03
9.6661334e+02
1.8770309e+03
1.7594309e+03
9.0866711e+02
1.5170187e+03
2.1789470e+03
1.9164542e+03
1.9320283e+03
2.0957161e+03
1.7927501e+03
1.4618707e+03
2.0962700e+03
9.4929865e+02
1.9569080e+03
2.1689851e+03
1.1211646e+03
1.7334495e+03
1.5619952e+03
9.2559668e+02
2.2084868e+03
1.2418264e+03
1.0449974e+03
1.6777371e+03
9.2522699e+02
2.2496121e+03
1.9835723e+03
2.2326819e+03
1.7288494e+03
9.3423621e+02
1.9358147e+03
1.4239427e+03
1.0054139e+03
1.8646604e+03
1.9945341e+03
1.6878436e+03
1.7089069e+03
2.2126094e+03
2.0110073e+03
9.5717725e+02
2.1282932e+03
2.1212727e+03
2.2012766e+03
2.0428362e+03
1.7793796e+03
1.2419492e+03
1.1397412e+03
2.1853091e+03
1.6325194e+03
9.9432220e+02
1.4008616e+03
1.0770596e+03
2.0383506e+03
9.7371381e+02
1.6886000e+03
2.0824448e+03
9.7370691e+02
2.1432563e+03
1.0459980e+03
1.5820592e+03
9.8244684e+02
1.8536360e+03
1.9242312e+03
2.1523293e+03
1.8963270e+03
1.2517338e+03
1.9825968e+03
2.1731284e+03
2.0647571e+03
1.9113375e+03
1.7680604e+03
1.3901570e+03
1.0041252e+03
1.1647506e+03
2.2196736e+03
1.9349425e+03
2.2069780e+03
1.5427472e+03
1.1124727e+03
2.1139287e+03
2.0307458e+03
1.0390059e+03
1.6734249e+03
1.9599893e+03
2.1908760e+03
2.1676719e+03
2.0896641e+03
1.0187785e+03
1.9857336e+03
2.1669343e+03
1.0194071e+03
1.3895472e+03
1.2688020e+03
1.0874806e+03
1.8445315e+03
1.9144791e+03
1.7593612e+03
1.0284302e+03
1.1942166e+03
1.5152903e+03
2.0699893e+03
2.0116050e+03
1.0495446e+03
2.1367017e+03
1.9723966e+03
1.6633994e+03
1.1498481e+03
2.1121448e+03
2.1422366e+03
1.0829615e+03
2.1929270e+03
1.3967897e+03
2.1834692e+03
1.4986832e+03
1.2910406e+03
2.0201127e+03
2.0370364e+03
1.8764266e+03
2.1005649e+03
1.8909915e+03
2.1706099e+03
1.0611718e+03
1.1290393e+03
1.8375933e+03
1.7535042e+03
1.9136581e+03
1.0626371e+03
1.2264391e+03
1.0723221e+03
1.9066101e+03
1.6581636e+03
1.9375769e+03
2.1383323e+03
2.1495854e+03
2.0616890e+03
1.0933210e+03
2.0586157e+03
1.1880096e+03
1.9637877e+03
1.4912169e+03
1.4098668e+03
1.9621921e+03
1.1257743e+03
2.1218967e+03
1.3166732e+03
1.9871381e+03
1.7504390e+03
2.0847620e+03
2.1150203e+03
1.2600422e+03
2.0107023e+03
2.1688684e+03
1.1699633e+03
1.8328195e+03
1.6571482e+03
1.1011152e+03
2.0879934e+03
1.1035426e+03
2.1618599e+03
1.9005167e+03
1.4911044e+03
1.1141206e+03
2.0120410e+03
2.1516375e+03
1.4270537e+03
1.8570164e+03
1.8712234e+03
1.2260179e+03
1.1352698e+03
1.3442736e+03
1.8931997e+03
2.0481165e+03
2.1124700e+03
2.1331411e+03
1.9565739e+03
1.1670575e+03
1.9163470e+03
2.0367145e+03
1.7499288e+03
1.6596981e+03
2.1078003e+03
1.2939620e+03
1.9402397e+03
1.2096776e+03
1.8300436e+03
1.4966730e+03
2.0023101e+03
1.1387225e+03
1.4469498e+03
1.1421693e+03
2.0908604e+03
1.8960004e+03
1.9646530e+03
2.1471028e+03
1.1537549e+03
2.0760874e+03
2.0604351e+03
1.2631589e+03
2.1419233e+03
1.3727424e+03
1.1751940e+03
2.1338384e+03
1.9893451e+03
1.9505443e+03
1.2064860e+03
2.0383430e+03
1.6651395e+03
1.5064697e+03
2.1175312e+03
1.7516248e+03
1.3274093e+03
1.8382451e+03
2.0894668e+03
1.8521605e+03
1.8736296e+03
1.8290031e+03
1.4684562e+03
1.2477451e+03
2.0943513e+03
2.0142305e+03
1.8962643e+03
1.1740438e+03
1.9947621e+03
1.1785122e+03
1.1911354e+03
1.4012620e+03
1.8928206e+03
1.2989150e+03
1.9197275e+03
2.0647678e+03
1.2129214e+03
2.0692664e+03
2.1273159e+03
2.0386300e+03
1.5192802e+03
1.6728278e+03
2.1234795e+03
1.9438892e+03
1.2438114e+03
1.7551268e+03
1.3598220e+03
1.9454929e+03
2.1171223e+03
2.0291860e+03
1.4907355e+03
1.2838550e+03
2.1027100e+03
1.8293925e+03
1.9685953e+03
2.0688340e+03
1.8201842e+03
1.2070992e+03
1.4292427e+03
1.8338584e+03
2.0815132e+03
1.2125511e+03
1.9879109e+03
1.8549557e+03
1.3329316e+03
1.2261844e+03
1.8907266e+03
1.9938248e+03
1.5341191e+03
1.8772656e+03
1.6821757e+03
1.2483240e+03
2.0539829e+03
2.0498462e+03
1.9005096e+03
1.7600293e+03
1.3908174e+03
2.1092520e+03
1.2788635e+03
1.5131631e+03
2.1063787e+03
2.0189208e+03
1.9412286e+03
1.9246196e+03
2.1014131e+03
2.0205613e+03
1.3178041e+03
1.8309011e+03
1.4562734e+03
2.0886411e+03
1.2379026e+03
1.9494985e+03
1.5502047e+03
1.2442725e+03
1.3649823e+03
2.0501838e+03
1.2588521e+03
1.8894780e+03
1.6926681e+03
1.9816312e+03
2.0692598e+03
1.8028538e+03
1.2813235e+03
1.8163252e+03
1.7659508e+03
1.9751638e+03
1.8371514e+03
1.5352827e+03
1.4201489e+03
1.3115431e+03
2.0436929e+03
1.8592720e+03
2.0322844e+03
2.0927004e+03
1.9375803e+03
1.8824473e+03
1.3494780e+03
1.8332361e+03
2.0904927e+03
2.0009666e+03
2.0124003e+03
1.4820785e+03
2.0866433e+03
1.5669285e+03
1.9066478e+03
1.3949395e+03
1.2664736e+03
2.0752910e+03
1.2736802e+03
1.7038678e+03
1.2891222e+03
1.8888566e+03
1.9758157e+03
2.0332072e+03
1.9318113e+03
1.3118900e+03
1.5567672e+03
2.0575669e+03
1.7725505e+03
1.4476727e+03
1.3418114e+03
1.7862411e+03
1.7995392e+03
2.0338629e+03
1.9579764e+03
1.8201686e+03
1.9343979e+03
1.3788313e+03
1.8361357e+03
2.0163236e+03
1.5064829e+03
1.5838245e+03
2.0774851e+03
1.8421980e+03
2.0757092e+03
2.0046432e+03
1.8654117e+03
1.4227496e+03
2.0727476e+03
1.9844935e+03
1.7154142e+03
1.2928453e+03
1.3007992e+03
1.8886711e+03
2.0626230e+03
1.3170115e+03
1.5773883e+03
1.8898036e+03
1.3400356e+03
1.9703716e+03
1.7795376e+03
1.4733190e+03
2.0464069e+03
2.0176545e+03
1.3696782e+03
1.9153308e+03
1.6005430e+03
2.0244587e+03
1.4058712e+03
1.5293851e+03
1.8393757e+03
1.9315525e+03
1.7703129e+03
1.9420417e+03
1.7834600e+03
1.8039479e+03
2.0017528e+03
2.0634568e+03
1.7270177e+03
1.4484127e+03
1.9972365e+03
2.0619265e+03
1.8259567e+03
1.3170653e+03
2.0596633e+03
1.5969917e+03
1.3256760e+03
1.9692804e+03
1.3425651e+03
1.8492855e+03
1.8887592e+03
1.7866711e+03
1.4970712e+03
2.0505977e+03
1.3658064e+03
1.9652184e+03
1.8739404e+03
1.3951906e+03
2.0357490e+03
1.6168271e+03
2.0033246e+03
1.5507374e+03
1.8998879e+03
1.4306431e+03
1.8427698e+03
1.9289348e+03
2.0154449e+03
1.7384523e+03
1.4719668e+03
1.9271786e+03
1.9883977e+03
1.7550239e+03
1.6154796e+03
2.0504871e+03
1.7680369e+03
1.9901305e+03
1.7884241e+03
2.0490532e+03
1.3391949e+03
1.3483746e+03
1.3658512e+03
1.8889863e+03
1.8104630e+03
1.7937588e+03
2.0473279e+03
1.5189504e+03
1.3892740e+03
1.9551472e+03
1.8339619e+03
2.0391714e+03
1.9602863e+03
1.6324934e+03
1.4184222e+03
2.0255583e+03
1.8589314e+03
1.5705305e+03
1.4532191e+03
1.8461680e+03
1.9900530e+03
1.9264535e+03
1.7495468e+03
1.8853407e+03
2.0067847e+03
1.4934761e+03
1.6327965e+03
1.9132375e+03
1.3593070e+03
1.9832786e+03
1.9761127e+03
2.0384652e+03
1.3689734e+03
1.8006514e+03
1.7403231e+03
1.3869550e+03
1.5390040e+03
1.8892435e+03
2.0370048e+03
1.7532140e+03
1.7735303e+03
2.0356803e+03
1.4105286e+03
1.6474164e+03
1.7956364e+03
1.9555145e+03
1.9419464e+03
1.4394655e+03
2.0282992e+03
1.5887825e+03
1.8193448e+03
1.4736895e+03
2.0157970e+03
1.8494523e+03
1.7601757e+03
1.8446666e+03
1.9240331e+03
1.9777046e+03
1.5130221e+03
1.6489185e+03
1.9984401e+03
1.8715693e+03
1.3774825e+03
1.3875604e+03
1.8072367e+03
1.5572961e+03
1.9766372e+03
1.9647753e+03
1.4059727e+03
1.8894440e+03
2.0272942e+03
1.9000945e+03
1.6615154e+03
2.0257040e+03
1.4296719e+03
1.7261562e+03
1.7389333e+03
2.0246606e+03
1.4584242e+03
1.7592007e+03
1.6055309e+03
1.9508505e+03
2.0179338e+03
1.7814006e+03
1.9295563e+03
1.4921550e+03
1.8525331e+03
1.7702520e+03
1.8053479e+03
2.0064249e+03
1.6638457e+03
1.9216117e+03
1.5306965e+03
1.8310507e+03
1.9661672e+03
1.9903730e+03
1.8134342e+03
1.8584719e+03
1.3938085e+03
1.5739022e+03
1.4042301e+03
1.6747448e+03
1.9701655e+03
1.4230072e+03
1.8895201e+03
1.9542817e+03
1.4468124e+03
2.0168885e+03
2.0150793e+03
1.8876455e+03
1.6208267e+03
1.4754081e+03
2.0142113e+03
1.9462485e+03
1.7124689e+03
1.7251377e+03
1.7453717e+03
1.7797184e+03
2.0080281e+03
1.8553440e+03
1.5087222e+03
1.9178752e+03
1.7676852e+03
1.6775962e+03
1.9974016e+03
1.7918936e+03
1.5465970e+03
1.9191392e+03
1.9825453e+03
1.9553468e+03
1.8180000e+03
1.8191884e+03
1.5889043e+03
1.6870852e+03
1.4083746e+03
1.4190797e+03
1.4381648e+03
1.8894205e+03
1.8459612e+03
1.9638253e+03
1.4620609e+03
1.9445437e+03
2.0071732e+03
1.6347295e+03
1.4905289e+03
2.0050654e+03
1.8758025e+03
2.0042767e+03
1.9416688e+03
1.7885426e+03
1.8578375e+03
1.5234990e+03
1.6992075e+03
1.9985349e+03
1.7117711e+03
1.6902010e+03
1.7319830e+03
1.9068179e+03
1.5608228e+03
1.9886858e+03
1.7544249e+03
1.9165751e+03
1.7789119e+03
1.8244644e+03
1.9749197e+03
1.6985377e+03
1.6023875e+03
1.9451639e+03
1.4212712e+03
1.8054409e+03
1.4322072e+03
1.4515510e+03
1.8891066e+03
1.9575812e+03
1.4755278e+03
1.8339618e+03
1.6473051e+03
1.9354847e+03
1.5038977e+03
1.9980812e+03
1.9956018e+03
1.7967103e+03
1.9370773e+03
1.8644902e+03
1.9948041e+03
1.5365928e+03
1.8599818e+03
1.7017008e+03
1.9894084e+03
1.6863204e+03
1.5734725e+03
1.6987799e+03
1.8963115e+03
1.7189777e+03
1.9138870e+03
1.9802375e+03
1.7415594e+03
1.7091180e+03
1.8292427e+03
1.6144375e+03
1.7663396e+03
1.9674601e+03
1.4325881e+03
1.4437085e+03
1.9355507e+03
1.8885497e+03
1.4632694e+03
1.7933083e+03
1.4873204e+03
1.6586216e+03
1.9514000e+03
1.5156219e+03
1.8224077e+03
1.8042219e+03
1.9270388e+03
1.9895525e+03
1.9866328e+03
1.9324437e+03
1.5481075e+03
1.8617563e+03
1.7121426e+03
1.9857437e+03
1.8536439e+03
1.5846429e+03
1.9806046e+03
1.9110486e+03
1.6737579e+03
1.6861130e+03
1.7188528e+03
1.9720177e+03
1.8862936e+03
1.8335165e+03
1.7063020e+03
1.6251394e+03
1.7290330e+03
1.9601321e+03
1.4424121e+03
1.4536770e+03
1.7541194e+03
1.4734197e+03
1.8877300e+03
1.9264484e+03
1.6687490e+03
1.4975419e+03
1.9452517e+03
1.7815442e+03
1.5258048e+03
1.8110881e+03
1.8112412e+03
1.9191487e+03
1.7215776e+03
1.5581429e+03
1.8631503e+03
1.9815338e+03
1.9277423e+03
1.9781078e+03
1.9770488e+03
1.5944266e+03
1.8432069e+03
1.9720813e+03
1.7277758e+03
1.9080392e+03
1.8372874e+03
1.6345756e+03
1.9639890e+03
1.8767097e+03
1.6614728e+03
1.6737219e+03
1.6939056e+03
1.4508271e+03
1.4622015e+03
1.9529030e+03
1.7167937e+03
1.4820964e+03
1.8866335e+03
1.6777567e+03
1.5062898e+03
1.9178060e+03
1.7421987e+03
1.9391080e+03
1.8173274e+03
1.5345438e+03
1.7700958e+03
1.7300597e+03
1.5667933e+03
1.8641593e+03
1.9117638e+03
1.8004104e+03
1.9229498e+03
1.9739774e+03
1.9699800e+03
1.6029120e+03
1.9686758e+03
1.7359259e+03
1.8331290e+03
1.9637988e+03
1.9048419e+03
1.8405638e+03
1.6428254e+03
1.9561160e+03
1.8675122e+03
1.6494199e+03
1.4579127e+03
1.6615604e+03
1.4693662e+03
1.6857126e+03
1.9457418e+03
1.6817412e+03
1.4893889e+03
1.8852513e+03
1.7047936e+03
1.5136554e+03
1.8229634e+03
1.9095787e+03
1.7305293e+03
1.9329431e+03
1.5419303e+03
1.7376432e+03
1.7589155e+03
1.5741473e+03
1.8647843e+03
1.9180461e+03
1.9048398e+03
1.9668400e+03
1.7898689e+03
1.9622069e+03
1.6101824e+03
1.7433455e+03
1.9605842e+03
1.9557197e+03
1.8433588e+03
1.9014434e+03
1.8233657e+03
1.6499648e+03
1.9483650e+03
1.4637439e+03
1.8586588e+03
1.6926830e+03
1.4752502e+03
1.4953799e+03
1.8835779e+03
1.6375562e+03
1.9386194e+03
1.6495848e+03
1.6697640e+03
1.5197242e+03
1.8280234e+03
1.6929877e+03
1.5480493e+03
1.9017271e+03
1.9267329e+03
1.7443827e+03
1.7190667e+03
1.8650294e+03
1.5802877e+03
1.7479597e+03
1.9130132e+03
1.8983374e+03
1.6163158e+03
1.7500778e+03
1.9600829e+03
1.9547495e+03
1.7795746e+03
1.9527365e+03
1.8456882e+03
1.6560651e+03
1.8978322e+03
1.9478091e+03
1.8138767e+03
1.9407045e+03
1.6987310e+03
1.4683907e+03
1.4799268e+03
1.5001466e+03
1.8816104e+03
1.8501116e+03
1.9315085e+03
1.8325366e+03
1.5245747e+03
1.6258408e+03
1.6377535e+03
1.6579318e+03
1.5529795e+03
1.7503317e+03
1.9204553e+03
1.6813336e+03
1.8942155e+03
1.8649014e+03
1.5852909e+03
1.7077689e+03
1.7561666e+03
1.9078347e+03
1.6213850e+03
1.7371880e+03
1.8922219e+03
1.9536711e+03
1.9475723e+03
1.7694886e+03
1.8475701e+03
1.6611935e+03
1.9450977e+03
1.8939990e+03
1.9400339e+03
1.8046256e+03
1.7039166e+03
1.9331049e+03
1.4719187e+03
1.4834637e+03
1.5037598e+03
1.8793474e+03
1.8365333e+03
1.8418364e+03
1.5282793e+03
1.9243835e+03
1.7555420e+03
1.5567927e+03
1.6142347e+03
1.6260267e+03
1.6462043e+03
1.9140895e+03
1.8644086e+03
1.8870125e+03
1.5892273e+03
1.6697915e+03
1.6965972e+03
1.7616558e+03
1.6254572e+03
1.9024957e+03
1.7265625e+03
1.8864622e+03
1.9475731e+03
1.8490233e+03
1.9406425e+03
1.6654125e+03
1.9376359e+03
1.7595753e+03
1.8899363e+03
1.9323640e+03
1.7082968e+03
1.7955789e+03
1.9255383e+03
1.4743877e+03
1.4859237e+03
1.5062842e+03
1.8767892e+03
1.8400439e+03
1.5309038e+03
1.9172205e+03
1.7600635e+03
1.8338021e+03
1.5595553e+03
1.6027004e+03
1.6143667e+03
1.9076161e+03
1.8635601e+03
1.5921616e+03
1.6345433e+03
1.8800894e+03
1.7665875e+03
1.6583234e+03
1.6285942e+03
1.6855144e+03
1.8969828e+03
1.8810304e+03
1.7160481e+03
1.8500670e+03
1.6687803e+03
1.9417605e+03
1.9339305e+03
1.8856368e+03
1.9303214e+03
1.7498015e+03
1.9247709e+03
1.7119247e+03
1.4758530e+03
1.4873634e+03
1.7867056e+03
1.9179789e+03
1.8430985e+03
1.5077787e+03
1.8739365e+03
1.5325084e+03
1.7639436e+03
1.9099967e+03
1.5613269e+03
1.8259806e+03
1.5941528e+03
1.8623655e+03
1.9010171e+03
1.7710028e+03
1.5912023e+03
1.6027372e+03
1.6229124e+03
1.8734207e+03
1.6308530e+03
1.6468929e+03
1.8912832e+03
1.6744856e+03
1.8507205e+03
1.6713507e+03
1.8759021e+03
1.9362074e+03
1.7056113e+03
1.9274092e+03
1.8810945e+03
1.9231268e+03
1.7148501e+03
1.7401360e+03
1.9172280e+03
1.8457263e+03
1.4763651e+03
1.4878347e+03
1.9104021e+03
1.5082968e+03
1.8707908e+03
1.7779772e+03
1.7672274e+03
1.5331472e+03
1.9026908e+03
1.5621620e+03
1.8183457e+03
1.5952543e+03
1.8608345e+03
1.7749409e+03
1.8942754e+03
1.5797058e+03
1.6322856e+03
1.5911031e+03
1.8669829e+03
1.6112760e+03
1.8853850e+03
1.6354658e+03
1.8510022e+03
1.6731730e+03
1.6634773e+03
1.8710552e+03
1.9308904e+03
1.9210536e+03
1.6952206e+03
1.8763036e+03
1.7171195e+03
1.9160269e+03
1.7305492e+03
1.9097107e+03
1.8479556e+03
1.4759695e+03
1.4873845e+03
1.5078864e+03
1.8673533e+03
1.9027849e+03
1.7699570e+03
1.5328688e+03
1.7693668e+03
1.5621093e+03
1.8952828e+03
1.8108737e+03
1.5955143e+03
1.8589762e+03
1.7784393e+03
1.8873746e+03
1.6329390e+03
1.5681780e+03
1.8607551e+03
1.5794312e+03
1.8792769e+03
1.5996007e+03
1.8509303e+03
1.6742927e+03
1.6240084e+03
1.6524575e+03
1.8664698e+03
1.9257887e+03
1.8712588e+03
1.7187755e+03
1.9148411e+03
1.6848457e+03
1.9089980e+03
1.8498132e+03
1.9021960e+03
1.7210137e+03
1.4747076e+03
1.4860547e+03
1.7721724e+03
1.5065903e+03
1.8636254e+03
1.8951058e+03
1.5317169e+03
1.7608495e+03
1.5612126e+03
1.8877534e+03
1.7815333e+03
1.5949766e+03
1.8567997e+03
1.8035421e+03
1.8802992e+03
1.6328558e+03
1.8547180e+03
1.5565872e+03
1.8729479e+03
1.8505219e+03
1.5676888e+03
1.6747512e+03
1.5878535e+03
1.6124888e+03
1.6413951e+03
1.8621285e+03
1.7198578e+03
1.8659545e+03
1.9208833e+03
1.9087509e+03
1.6744579e+03
1.9020188e+03
1.8513251e+03
1.4726166e+03
1.8946622e+03
1.4838829e+03
1.7739106e+03
1.5044471e+03
1.7115028e+03
1.8596083e+03
1.5297303e+03
1.8873442e+03
1.5595111e+03
1.7524016e+03
1.7842566e+03
1.8800844e+03
1.5936799e+03
1.8543132e+03
1.7963307e+03
1.8730342e+03
1.6320751e+03
1.8497931e+03
1.8663875e+03
1.6745863e+03
1.8488546e+03
1.5449027e+03
1.5558451e+03
1.5760028e+03
1.6008755e+03
1.7204030e+03
1.8603856e+03
1.8580160e+03
1.9161572e+03
1.6302606e+03
1.9027640e+03
1.8525154e+03
1.8950688e+03
1.6640294e+03
1.4697292e+03
1.7752065e+03
1.4809026e+03
1.8870891e+03
1.5014905e+03
1.8553029e+03
1.7019917e+03
1.5269431e+03
1.8794807e+03
1.5570391e+03
1.7866409e+03
1.7440013e+03
1.8722582e+03
1.5916593e+03
1.8515249e+03
1.6306310e+03
1.8655652e+03
1.7892208e+03
1.8487593e+03
1.6738323e+03
1.8595850e+03
1.8431492e+03
1.5330955e+03
1.5438696e+03
1.5640181e+03
1.7204445e+03
1.5891385e+03
1.8545468e+03
1.8541185e+03
1.9115950e+03
1.8534070e+03
1.6190251e+03
1.8968630e+03
1.7760927e+03
1.8881295e+03
1.4660751e+03
1.6535334e+03
1.4771432e+03
1.4977499e+03
1.8507097e+03
1.8794574e+03
1.5233854e+03
1.6924563e+03
1.8714967e+03
1.5538273e+03
1.7887158e+03
1.8642579e+03
1.7356277e+03
1.5889453e+03
1.8484418e+03
1.6285551e+03
1.8578778e+03
1.7821948e+03
1.8474348e+03
1.6725204e+03
1.8525302e+03
1.8375879e+03
1.7200135e+03
1.5211368e+03
1.5317334e+03
1.5518694e+03
1.8484324e+03
1.8540220e+03
1.5772485e+03
1.8504242e+03
1.9071832e+03
1.8910321e+03
1.6076605e+03
1.7765991e+03
1.8811835e+03
1.4616801e+03
1.4726304e+03
1.4932513e+03
1.8458289e+03
1.6429445e+03
1.8717490e+03
1.5190830e+03
1.7905098e+03
1.8633744e+03
1.6828739e+03
1.5499020e+03
1.5855653e+03
1.8450704e+03
1.8560673e+03
1.7272611e+03
1.6258748e+03
1.8499583e+03
1.7752368e+03
1.8458331e+03
1.6706787e+03
1.8452126e+03
1.8321584e+03
1.7191383e+03
1.5090000e+03
1.5194084e+03
1.8420365e+03
1.8543805e+03
1.5395280e+03
1.8469230e+03
1.5651769e+03
1.7767544e+03
1.9029098e+03
1.8852570e+03
1.4565669e+03
1.5961399e+03
1.4673867e+03
1.8742145e+03
1.4880168e+03
1.8406600e+03
1.5140587e+03
1.8639468e+03
1.6322375e+03
1.7920494e+03
1.5452863e+03
1.8550966e+03
1.6732225e+03
1.5815430e+03
1.8414166e+03
1.8476699e+03
1.7188834e+03
1.6226149e+03
1.8417926e+03
1.8439668e+03
1.7683323e+03
1.6683329e+03
1.8376221e+03
1.7178451e+03
1.8268500e+03
1.8545022e+03
1.8353533e+03
1.4966586e+03
1.5068673e+03
1.7765851e+03
1.5269655e+03
1.8436064e+03
1.8987642e+03
1.5528958e+03
1.8795243e+03
1.4507552e+03
1.4614315e+03
1.4820656e+03
1.8352025e+03
1.8672074e+03
1.5844369e+03
1.5083314e+03
1.7933601e+03
1.8560345e+03
1.6213888e+03
1.5400001e+03
1.8466469e+03
1.6634814e+03
1.5768992e+03
1.8374857e+03
1.8390504e+03
1.6187975e+03
1.7104774e+03
1.8333673e+03
1.8418474e+03
1.6655059e+03
1.7614679e+03
1.8297478e+03
1.7161580e+03
1.8216533e+03
1.8544054e+03
1.8283763e+03
1.7761160e+03
1.4840879e+03
1.4940839e+03
1.5141547e+03
1.8404675e+03
1.8947373e+03
1.4442626e+03
1.4547812e+03
1.8738223e+03
1.5403781e+03
1.4754133e+03
1.8294552e+03
1.8601481e+03
1.5725258e+03
1.7944658e+03
1.5019172e+03
1.8479965e+03
1.5340601e+03
1.6103752e+03
1.8380089e+03
1.5716519e+03
1.8332823e+03
1.6536309e+03
1.8301932e+03
1.6144417e+03
1.7020270e+03
1.8246686e+03
1.8394862e+03
1.6622188e+03
1.7546316e+03
1.8215791e+03
1.7140994e+03
1.8165604e+03
1.8541078e+03
1.8210989e+03
1.7753706e+03
1.4712642e+03
1.4810330e+03
1.8375009e+03
1.8908215e+03
1.4371034e+03
1.5010688e+03
1.4474500e+03
1.8681403e+03
1.8234164e+03
1.4680731e+03
1.5275975e+03
1.7953895e+03
1.8530232e+03
1.4948295e+03
1.5603817e+03
1.8398176e+03
1.5274801e+03
1.5991744e+03
1.8291671e+03
1.5658163e+03
1.8288107e+03
1.6436520e+03
1.8210828e+03
1.6095647e+03
1.6935172e+03
1.8156826e+03
1.8368936e+03
1.6584902e+03
1.7478129e+03
1.8131050e+03
1.7116901e+03
1.8536260e+03
1.8115653e+03
1.8135140e+03
1.7743715e+03
1.4292905e+03
1.4581646e+03
1.8347028e+03
1.4394492e+03
1.4676904e+03
1.8870104e+03
1.8170839e+03
1.4600558e+03
1.4876825e+03
1.7961536e+03
1.8624686e+03
1.4870785e+03
1.5145282e+03
1.8458207e+03
1.5202720e+03
1.5479805e+03
1.8314839e+03
1.5594055e+03
1.8240743e+03
1.5877650e+03
1.8201061e+03
1.6041816e+03
1.6335269e+03
1.8117040e+03
1.8340791e+03
1.6543375e+03
1.6849344e+03
1.8063954e+03
1.7089492e+03
1.7410024e+03
1.8043141e+03
1.8529761e+03
1.7731398e+03
1.8066628e+03
1.8056144e+03
1.4208347e+03
1.4307886e+03
1.7967791e+03
1.8320708e+03
1.8832988e+03
1.4447679e+03
1.4513698e+03
1.8104552e+03
1.4540331e+03
1.8567990e+03
1.4739706e+03
1.4786730e+03
1.8385288e+03
1.5011454e+03
1.5124448e+03
1.8229810e+03
1.5352988e+03
1.5524307e+03
1.8190764e+03
1.8108105e+03
1.5761265e+03
1.5983055e+03
1.8020414e+03
1.6232388e+03
1.8310524e+03
1.6497765e+03
1.7967928e+03
1.6762662e+03
1.7058950e+03
1.7951949e+03
1.7341923e+03
1.8521738e+03
1.7716960e+03
1.7973918e+03
1.8018499e+03
1.4117454e+03
1.7972870e+03
1.4214761e+03
1.8035275e+03
1.4420212e+03
1.8296042e+03
1.8796833e+03
1.4310543e+03
1.4400389e+03
1.8511238e+03
1.4696188e+03
1.4599088e+03
1.8311367e+03
1.5040060e+03
1.4874246e+03
1.8142958e+03
1.5223140e+03
1.5449009e+03
1.8138197e+03
1.8012655e+03
1.5642390e+03
1.5919481e+03
1.7920795e+03
1.6127719e+03
1.8278221e+03
1.6448214e+03
1.7868606e+03
1.6675012e+03
1.7025449e+03
1.7857354e+03
1.7273760e+03
1.8512345e+03
1.7700601e+03
1.7888384e+03
1.7971246e+03
1.7976976e+03
1.4020305e+03
1.4115179e+03
1.7962972e+03
1.4320149e+03
1.8273037e+03
1.8761615e+03
1.4599207e+03
1.8454369e+03
1.4170052e+03
1.4256870e+03
1.8236346e+03
1.4949607e+03
1.4454742e+03
1.4733425e+03
1.8054153e+03
1.5368236e+03
1.8083066e+03
1.5090040e+03
1.7914558e+03
1.5851198e+03
1.5520839e+03
1.7818027e+03
1.8243972e+03
1.6021115e+03
1.6394857e+03
1.7765836e+03
1.6586295e+03
1.6989153e+03
1.7759229e+03
1.8501729e+03
1.7205485e+03
1.7682513e+03
1.7799453e+03
1.7924869e+03
1.7980310e+03
1.3916969e+03
1.4009192e+03
1.4213538e+03
1.7887609e+03
1.8251718e+03
1.4495811e+03
1.8727322e+03
1.8397328e+03
1.4026036e+03
1.4853131e+03
1.4109579e+03
1.8160129e+03
1.4306444e+03
1.5282051e+03
1.8025392e+03
1.7963265e+03
1.4588763e+03
1.4953480e+03
1.7813667e+03
1.5778296e+03
1.5396432e+03
1.7711952e+03
1.8207858e+03
1.6337819e+03
1.5912440e+03
1.7659470e+03
1.6950221e+03
1.6496423e+03
1.7657448e+03
1.8490038e+03
1.7137062e+03
1.7662891e+03
1.7707034e+03
1.7879382e+03
1.7983073e+03
1.3807510e+03
1.3896841e+03
1.4100397e+03
1.7809142e+03
1.4386014e+03
1.8232122e+03
1.8693958e+03
1.8340072e+03
1.4750656e+03
1.3878344e+03
1.8082632e+03
1.3958336e+03
1.4153981e+03
1.5190503e+03
1.7965194e+03
1.7870176e+03
1.4440043e+03
1.7709833e+03
1.5700858e+03
1.4813257e+03
1.5269001e+03
1.7602410e+03
1.8169963e+03
1.6277219e+03
1.5801572e+03
1.7549349e+03
1.6908809e+03
1.6405326e+03
1.8477422e+03
1.7551875e+03
1.7641923e+03
1.7068472e+03
1.7611030e+03
1.7985464e+03
1.7834817e+03
1.3691984e+03
1.3778158e+03
1.3980734e+03
1.7727527e+03
1.4269818e+03
1.8214304e+03
1.8661538e+03
1.4642196e+03
1.8282570e+03
1.8003773e+03
1.3726841e+03
1.5093633e+03
1.7902487e+03
1.3802974e+03
1.3997153e+03
1.7774761e+03
1.4287056e+03
1.5618961e+03
1.7602904e+03
1.4669180e+03
1.8130371e+03
1.6213173e+03
1.5138392e+03
1.7489236e+03
1.5688403e+03
1.7435314e+03
1.6865073e+03
1.8464027e+03
1.6312946e+03
1.7442371e+03
1.7619801e+03
1.6999713e+03
1.7511343e+03
1.7987686e+03
1.7791222e+03
1.3570450e+03
1.3653173e+03
1.3854545e+03
1.7642717e+03
1.4147214e+03
1.8198336e+03
1.4527755e+03
1.8630094e+03
1.8224797e+03
1.7923480e+03
1.4991473e+03
1.7837286e+03
1.3571415e+03
1.3643346e+03
1.7676904e+03
1.3835771e+03
1.5532676e+03
1.4129603e+03
1.7492732e+03
1.4521068e+03
1.8089164e+03
1.6145792e+03
1.7372261e+03
1.5004459e+03
1.5572836e+03
1.7317196e+03
1.6819167e+03
1.8450005e+03
1.6219242e+03
1.7328790e+03
1.7596722e+03
1.6930798e+03
1.7407864e+03
1.7989943e+03
1.7748667e+03
1.3442965e+03
1.3521914e+03
1.3721825e+03
1.7554662e+03
1.4018187e+03
1.4407333e+03
1.8184307e+03
1.8599670e+03
1.8166746e+03
1.7769608e+03
1.4884054e+03
1.7841687e+03
1.3411976e+03
1.3479321e+03
1.7576489e+03
1.3669662e+03
1.5442070e+03
1.3967499e+03
1.7379161e+03
1.8046427e+03
1.4368750e+03
1.6075193e+03
1.7251311e+03
1.4867072e+03
1.6771252e+03
1.7194823e+03
1.5454790e+03
1.8435510e+03
1.7210980e+03
1.6124191e+03
1.7572883e+03
1.6861761e+03
1.7300482e+03
1.7992445e+03
1.7707235e+03
1.3309594e+03
1.3384409e+03
1.3582563e+03
1.7463306e+03
1.3882715e+03
1.4280920e+03
1.8172319e+03
1.8570322e+03
1.8108412e+03
1.4771398e+03
1.7699467e+03
1.7758333e+03
1.7473405e+03
1.5347213e+03
1.3248462e+03
1.3310791e+03
1.3498665e+03
1.7262039e+03
1.3800569e+03
1.8002246e+03
1.6001489e+03
1.4212070e+03
1.7126211e+03
1.4726112e+03
1.6721488e+03
1.7068015e+03
1.5334203e+03
1.8420699e+03
1.7548491e+03
1.7088784e+03
1.6027787e+03
1.7189084e+03
1.7995408e+03
1.6792654e+03
1.3170408e+03
1.3240692e+03
1.7667032e+03
1.3436747e+03
1.7368595e+03
1.3740771e+03
1.4148508e+03
1.8162498e+03
1.8542125e+03
1.4653533e+03
1.7626874e+03
1.8049808e+03
1.7673364e+03
1.5248175e+03
1.7367538e+03
1.3080834e+03
1.3137672e+03
1.3322637e+03
1.7141207e+03
1.7956710e+03
1.5924802e+03
1.3628651e+03
1.4050884e+03
1.6996774e+03
1.6670044e+03
1.4581478e+03
1.6936586e+03
1.8405736e+03
1.5211029e+03
1.7523759e+03
1.6962034e+03
1.5930046e+03
1.7999054e+03
1.7073547e+03
1.6723550e+03
1.3025491e+03
1.3090804e+03
1.3284368e+03
1.7270469e+03
1.7628186e+03
1.3592334e+03
1.4010088e+03
1.8154980e+03
1.8515165e+03
1.4530482e+03
1.7551847e+03
1.7990955e+03
1.7586735e+03
1.5145032e+03
1.7258779e+03
1.2909089e+03
1.2959904e+03
1.7909916e+03
1.7016508e+03
1.3141453e+03
1.5845259e+03
1.3451602e+03
1.6862811e+03
1.3885066e+03
1.6617100e+03
1.4433088e+03
1.6800337e+03
1.8390790e+03
1.5085243e+03
1.7498909e+03
1.6830557e+03
1.5831002e+03
1.8003612e+03
1.6953745e+03
1.6654542e+03
1.2874945e+03
1.2934797e+03
1.3125419e+03
1.7168867e+03
1.7590840e+03
1.3437378e+03
1.3865648e+03
1.8149924e+03
1.4402279e+03
1.7474404e+03
1.8489545e+03
1.7931884e+03
1.7498407e+03
1.5037865e+03
1.7147021e+03
1.2733257e+03
1.7861959e+03
1.5762996e+03
1.2777454e+03
1.6887776e+03
1.2955009e+03
1.3269293e+03
1.6724126e+03
1.6562841e+03
1.3714503e+03
1.4280878e+03
1.8376036e+03
1.6659067e+03
1.7474172e+03
1.4956840e+03
1.6694171e+03
1.5730715e+03
1.8009321e+03
1.6829543e+03
1.6585748e+03
1.2718889e+03
1.2772737e+03
1.2959902e+03
1.7063728e+03
1.7555164e+03
1.3275883e+03
1.3715188e+03
1.4268959e+03
1.7394562e+03
1.8147504e+03
1.8465380e+03
1.7872640e+03
1.4926765e+03
1.7408346e+03
1.7032159e+03
1.7812944e+03
1.5678160e+03
1.2553406e+03
1.6754846e+03
1.2590325e+03
1.2763225e+03
1.3081613e+03
1.6580511e+03
1.6507467e+03
1.3539105e+03
1.8361660e+03
1.6512561e+03
1.4124800e+03
1.7449797e+03
1.4825836e+03
1.6552686e+03
1.8016431e+03
1.5629264e+03
1.6700806e+03
1.6517306e+03
1.2557468e+03
1.2604707e+03
1.2787831e+03
1.6954987e+03
1.3107837e+03
1.7521344e+03
1.3558707e+03
1.4130569e+03
1.7312343e+03
1.8147911e+03
1.8442802e+03
1.7813281e+03
1.4811836e+03
1.7316527e+03
1.6914087e+03
1.7762982e+03
1.5590913e+03
1.6617548e+03
1.2369646e+03
1.2398552e+03
1.2566044e+03
1.6451195e+03
1.6431757e+03
1.2888473e+03
1.3358798e+03
1.8347853e+03
1.6360593e+03
1.3964835e+03
1.7426040e+03
1.4692277e+03
1.6405900e+03
1.8025199e+03
1.5526759e+03
1.6567385e+03
1.6449381e+03
1.2390857e+03
1.2430815e+03
1.2609229e+03
1.6842576e+03
1.2933235e+03
1.7489592e+03
1.3396221e+03
1.3987166e+03
1.7227772e+03
1.8151356e+03
1.8421957e+03
1.7753873e+03
1.4693193e+03
1.7222933e+03
1.6792701e+03
1.7712189e+03
1.5501431e+03
1.6475703e+03
1.2182135e+03
1.2202208e+03
1.6394250e+03
1.2363434e+03
1.6277637e+03
1.2689806e+03
1.8334817e+03
1.3173530e+03
1.6202931e+03
1.7403174e+03
1.3800984e+03
1.6253602e+03
1.4556227e+03
1.8035896e+03
1.5423330e+03
1.6429131e+03
1.6382161e+03
1.2219261e+03
1.2251194e+03
1.2424136e+03
1.6726428e+03
1.2752084e+03
1.7460140e+03
1.3227750e+03
1.3838822e+03
1.7140875e+03
1.8158063e+03
1.8403007e+03
1.4570969e+03
1.7694496e+03
1.7127551e+03
1.7660686e+03
1.5409906e+03
1.6667903e+03
1.6329136e+03
1.1991080e+03
1.6336882e+03
1.2001411e+03
1.2155398e+03
1.6117919e+03
1.8322761e+03
1.2485565e+03
1.2983278e+03
1.7381487e+03
1.6039323e+03
1.3633275e+03
1.6095574e+03
1.8048800e+03
1.4417787e+03
1.5319141e+03
1.6285885e+03
1.6315858e+03
1.2042928e+03
1.2066007e+03
1.2232614e+03
1.6606475e+03
1.2564404e+03
1.3053333e+03
1.7433243e+03
1.3685625e+03
1.7051687e+03
1.8168273e+03
1.4445317e+03
1.8386124e+03
1.7635240e+03
1.7030380e+03
1.7608606e+03
1.5316554e+03
1.6539589e+03
1.6177656e+03
1.6279352e+03
1.1796744e+03
1.1796321e+03
1.5952361e+03
1.1941967e+03
1.8311907e+03
1.2275732e+03
1.7361283e+03
1.5869510e+03
1.2788036e+03
1.3461765e+03
1.5931578e+03
1.8064205e+03
1.4277081e+03
1.6137482e+03
1.5214381e+03
1.1862145e+03
1.6250715e+03
1.1875450e+03
1.2034742e+03
1.6482644e+03
1.2370236e+03
1.2873022e+03
1.7409175e+03
1.3527683e+03
1.6960239e+03
1.4316410e+03
1.8182240e+03
1.8371498e+03
1.7576210e+03
1.6931421e+03
1.7556086e+03
1.5221606e+03
1.6407660e+03
1.6021073e+03
1.6221945e+03
1.1599452e+03
1.8302480e+03
1.1587148e+03
1.5780704e+03
1.1723206e+03
1.7342880e+03
1.2060316e+03
1.5693215e+03
1.2587831e+03
1.3286538e+03
1.8082410e+03
1.5761370e+03
1.4134265e+03
1.5983748e+03
1.5109269e+03
1.1677251e+03
1.1679763e+03
1.6186995e+03
1.6354866e+03
1.1830630e+03
1.2169630e+03
1.2686891e+03
1.7388230e+03
1.3365123e+03
1.6866575e+03
1.4184443e+03
1.8200232e+03
1.8359325e+03
1.7517516e+03
1.7503275e+03
1.6830687e+03
1.5125322e+03
1.6272019e+03
1.6164963e+03
1.5859188e+03
1.8294722e+03
1.5602683e+03
1.1399590e+03
1.1374159e+03
1.1499215e+03
1.7326611e+03
1.1839349e+03
1.5510148e+03
1.2382714e+03
1.8103727e+03
1.3107710e+03
1.5584689e+03
1.3989530e+03
1.5824501e+03
1.5004054e+03
1.1488638e+03
1.1479224e+03
1.1620409e+03
1.6223065e+03
1.6124987e+03
1.1962667e+03
1.2495032e+03
1.7370720e+03
1.3198097e+03
1.6770737e+03
1.4049640e+03
1.8222527e+03
1.8349817e+03
1.7459283e+03
1.7450323e+03
1.5027983e+03
1.6728196e+03
1.6132565e+03
1.6108732e+03
1.5691794e+03
1.8288875e+03
1.5418010e+03
1.1197617e+03
1.7312828e+03
1.1157676e+03
1.1270133e+03
1.1612896e+03
1.5319996e+03
1.2172765e+03
1.8128474e+03
1.2925426e+03
1.5401257e+03
1.3843094e+03
1.5659550e+03
1.4899015e+03
1.1296758e+03
1.1274160e+03
1.1404247e+03
1.6087170e+03
1.6065005e+03
1.1749442e+03
1.2297557e+03
1.7356975e+03
1.3026781e+03
1.6672775e+03
1.3912245e+03
1.8249412e+03
1.8343190e+03
1.7401644e+03
1.7397394e+03
1.4929894e+03
1.6623970e+03
1.5989202e+03
1.6053594e+03
1.5518677e+03
1.8285193e+03
1.5226387e+03
1.7301896e+03
1.0994066e+03
1.0938077e+03
1.1036139e+03
1.5122432e+03
1.1381044e+03
1.8156978e+03
1.1958090e+03
1.5210785e+03
1.2739865e+03
1.3695214e+03
1.5488696e+03
1.4794462e+03
1.1102126e+03
1.1064954e+03
1.1182338e+03
1.5947102e+03
1.1530074e+03
1.6007384e+03
1.2094604e+03
1.2851377e+03
1.6572740e+03
1.7347336e+03
1.3772534e+03
1.8281176e+03
1.8339669e+03
1.7344652e+03
1.4831387e+03
1.7344739e+03
1.6518041e+03
1.5841830e+03
1.5999912e+03
1.5339608e+03
1.8283932e+03
1.7294187e+03
1.5027494e+03
1.0789548e+03
1.0715812e+03
1.0797444e+03
1.4917103e+03
1.1143909e+03
1.8189565e+03
1.1738822e+03
1.5012959e+03
1.2551233e+03
1.3546172e+03
1.5311727e+03
1.4690728e+03
1.0905330e+03
1.0852039e+03
1.0954911e+03
1.5802783e+03
1.1304708e+03
1.5952482e+03
1.1886333e+03
1.2672114e+03
1.6470691e+03
1.7342158e+03
1.3630812e+03
1.8318108e+03
1.7292271e+03
1.8339480e+03
1.4732817e+03
1.7288712e+03
1.6410442e+03
1.5690347e+03
1.5948069e+03
1.5154354e+03
1.8285353e+03
1.7290088e+03
1.4820991e+03
1.0584755e+03
1.0491388e+03
1.4703635e+03
1.0554301e+03
1.8226569e+03
1.0901630e+03
1.1515117e+03
1.4807445e+03
1.2359769e+03
1.5128418e+03
1.3396283e+03
1.4588175e+03
1.0707029e+03
1.0635909e+03
1.0722233e+03
1.5654132e+03
1.1073507e+03
1.5900668e+03
1.1672924e+03
1.2489248e+03
1.6366685e+03
1.7341798e+03
1.3487408e+03
1.7240424e+03
1.8360498e+03
1.4634564e+03
1.8342850e+03
1.7233713e+03
1.6301211e+03
1.5898459e+03
1.5534652e+03
1.8289716e+03
1.4962662e+03
1.7289991e+03
1.4606517e+03
1.0380466e+03
1.0265381e+03
1.4481622e+03
1.8268315e+03
1.0306991e+03
1.0654358e+03
1.1287151e+03
1.4593888e+03
1.2165736e+03
1.4938531e+03
1.3245891e+03
1.0507963e+03
1.4487188e+03
1.0417123e+03
1.0484596e+03
1.5501061e+03
1.0836653e+03
1.5852328e+03
1.1454578e+03
1.2303058e+03
1.6260780e+03
1.7346616e+03
1.3342682e+03
1.7189287e+03
1.4537030e+03
1.8408622e+03
1.8350000e+03
1.7179891e+03
1.6190386e+03
1.5851497e+03
1.5374635e+03
1.8297278e+03
1.4764269e+03
1.7294292e+03
1.4383682e+03
1.8315127e+03
1.4250630e+03
1.0177547e+03
1.0038432e+03
1.0055825e+03
1.0402258e+03
1.4371903e+03
1.1055111e+03
1.1969415e+03
1.4741814e+03
1.3095365e+03
1.0308950e+03
1.0196294e+03
1.4388169e+03
1.0242325e+03
1.5343479e+03
1.0594340e+03
1.1231509e+03
1.5807854e+03
1.2113848e+03
1.6153037e+03
1.7356969e+03
1.3197012e+03
1.7139036e+03
1.4440636e+03
1.8462740e+03
1.8361138e+03
1.7127390e+03
1.6078003e+03
1.5807599e+03
1.5210181e+03
1.8308289e+03
1.4558890e+03
1.7303385e+03
1.4152064e+03
1.8367312e+03
1.4010187e+03
9.9769519e+02
9.8112451e+02
9.8011292e+02
1.0145486e+03
1.4141077e+03
1.0819183e+03
1.1771108e+03
1.4537991e+03
1.2945092e+03
1.0110896e+03
9.9741040e+02
9.9957703e+02
1.5181285e+03
1.4291537e+03
1.0346769e+03
1.1003942e+03
1.5767643e+03
1.1921936e+03
1.6043512e+03
1.3050803e+03
1.7373202e+03
1.7089835e+03
1.4345820e+03
1.8523091e+03
1.8376456e+03
1.7076343e+03
1.5767192e+03
1.5964092e+03
1.5041168e+03
1.8322985e+03
1.4346223e+03
1.7317655e+03
1.3911213e+03
1.8425159e+03
1.3759781e+03
9.7797241e+02
9.5845795e+02
9.5432300e+02
9.8841779e+02
1.3900958e+03
1.0579547e+03
1.1571123e+03
1.4326768e+03
1.2795476e+03
9.9147913e+02
9.7512927e+02
9.7452899e+02
1.5014373e+03
1.4197721e+03
1.0094130e+03
1.0772100e+03
1.5732087e+03
1.1727657e+03
1.5932252e+03
1.2904478e+03
1.7395640e+03
1.7041842e+03
1.4253031e+03
1.8589879e+03
1.8396119e+03
1.7026868e+03
1.5730704e+03
1.5848674e+03
1.8341580e+03
1.4867460e+03
1.7337478e+03
1.4125942e+03
1.3660637e+03
1.8488934e+03
1.3498859e+03
9.5869995e+02
9.3592462e+02
9.2824371e+02
1.3651063e+03
9.6184204e+02
1.0336350e+03
1.1369767e+03
1.4107831e+03
1.2646938e+03
9.7217145e+02
9.5286536e+02
9.4912451e+02
1.4842616e+03
1.4107159e+03
9.8365930e+02
1.0536193e+03
1.5701572e+03
1.1531353e+03
1.5819294e+03
1.2758469e+03
1.7424585e+03
1.6995193e+03
1.4162728e+03
1.8663268e+03
1.8420256e+03
1.6979058e+03
1.5698555e+03
1.5731757e+03
1.8364263e+03
1.4688911e+03
1.7363207e+03
1.3897701e+03
1.3399811e+03
1.8558868e+03
1.3226821e+03
9.4000055e+02
9.1360944e+02
9.0190100e+02
1.3390870e+03
9.3482208e+02
1.0089689e+03
1.3880840e+03
1.1167338e+03
1.2499906e+03
9.5328302e+02
9.3070276e+02
9.2339752e+02
1.4665884e+03
9.5742737e+02
1.4020297e+03
1.0296396e+03
1.1333356e+03
1.5704661e+03
1.5676471e+03
1.2613226e+03
1.7460297e+03
1.6949999e+03
1.4075377e+03
1.8743361e+03
1.8448944e+03
1.5671155e+03
1.6932971e+03
1.5613329e+03
1.8391183e+03
1.4505367e+03
1.7395165e+03
1.3661139e+03
1.3128175e+03
1.8635145e+03
1.2943030e+03
9.2200696e+02
8.9160010e+02
8.7531207e+02
1.3119824e+03
9.0734601e+02
9.8395807e+02
1.3645441e+03
1.0964114e+03
1.2354818e+03
9.3493964e+02
9.0872937e+02
8.9737677e+02
1.4484031e+03
9.3072064e+02
1.3937579e+03
1.0052838e+03
1.1133994e+03
1.5588357e+03
1.5657133e+03
1.2469202e+03
1.7502988e+03
1.6906335e+03
1.3991447e+03
1.8830192e+03
1.5648900e+03
1.8482200e+03
1.6888629e+03
1.5493369e+03
1.8422438e+03
1.4316676e+03
1.7433636e+03
1.3415889e+03
1.2845155e+03
1.8717892e+03
1.2646818e+03
9.0486359e+02
8.6998566e+02
1.2837354e+03
8.4848047e+02
8.7938324e+02
9.5859241e+02
1.3401276e+03
1.0760342e+03
9.1727673e+02
8.8703558e+02
1.2212124e+03
8.7108215e+02
1.4296915e+03
9.0352991e+02
1.3859468e+03
9.8055591e+02
1.0933571e+03
1.5470372e+03
1.5643885e+03
1.2326860e+03
1.7552805e+03
1.6864238e+03
1.3911407e+03
1.5632164e+03
1.8923699e+03
1.8519954e+03
1.6846000e+03
1.8458059e+03
1.5371844e+03
1.7478856e+03
1.4122705e+03
1.3161615e+03
1.8807161e+03
1.2550184e+03
1.2337517e+03
8.8872986e+02
1.2542893e+03
8.4885657e+02
8.2138965e+02
8.5087701e+02
9.3284515e+02
1.3148014e+03
1.0556227e+03
9.0044135e+02
8.6571320e+02
1.2072296e+03
8.4451965e+02
1.4104414e+03
8.7582697e+02
9.5544830e+02
1.3786437e+03
1.0732357e+03
1.5350687e+03
1.5637028e+03
1.2186676e+03
1.6823691e+03
1.7609805e+03
1.3835741e+03
1.5621296e+03
1.9023701e+03
1.8562045e+03
1.6805013e+03
1.8497997e+03
1.5248745e+03
1.7530988e+03
1.3923389e+03
1.2898060e+03
1.8902909e+03
1.2242762e+03
1.2014515e+03
1.2235947e+03
8.7378723e+02
8.2830560e+02
7.9399603e+02
8.2173413e+02
1.2885404e+03
9.0666693e+02
1.0351912e+03
8.8459515e+02
8.4485498e+02
8.1767505e+02
1.3906472e+03
1.1935829e+03
8.4755743e+02
9.2993671e+02
1.3718987e+03
1.0530581e+03
1.5229302e+03
1.5636826e+03
1.2049141e+03
1.6784636e+03
1.3764943e+03
1.7673927e+03
1.5616611e+03
1.9129861e+03
1.8608195e+03
1.8542104e+03
1.6765565e+03
1.5124127e+03
1.7590105e+03
1.3718810e+03
1.2625138e+03
1.9004973e+03
1.1922549e+03
1.1677347e+03
1.1916177e+03
8.6025153e+02
8.0843372e+02
7.6622229e+02
7.9181274e+02
1.2613365e+03
8.7997723e+02
1.0147455e+03
8.6992194e+02
8.2455615e+02
7.9050720e+02
1.3703176e+03
1.1803253e+03
8.1863037e+02
9.0397412e+02
1.3657664e+03
1.0328411e+03
1.5106282e+03
1.5643518e+03
1.1914772e+03
1.6746984e+03
1.3699535e+03
1.7744967e+03
1.5618398e+03
1.9241646e+03
1.8658003e+03
1.8590115e+03
1.6727572e+03
1.4998210e+03
1.7656169e+03
1.3509320e+03
1.2343085e+03
1.9113030e+03
1.1589508e+03
1.1325831e+03
1.1583550e+03
8.4839508e+02
7.8936371e+02
7.3795306e+02
7.6090759e+02
1.2332137e+03
8.5265265e+02
9.9427722e+02
8.5663959e+02
8.0491998e+02
7.6294086e+02
1.3494889e+03
7.8890619e+02
1.1675121e+03
8.7748242e+02
1.3603063e+03
1.0125925e+03
1.4981859e+03
1.1784122e+03
1.5657303e+03
1.6710659e+03
1.3640081e+03
1.7822529e+03
1.5626909e+03
1.9358275e+03
1.8641644e+03
1.8710958e+03
1.6691055e+03
1.7728989e+03
1.4871541e+03
1.3295758e+03
1.2052677e+03
1.9226562e+03
1.1244130e+03
1.0960292e+03
1.1238557e+03
8.3858319e+02
7.7126819e+02
7.0903870e+02
7.2873358e+02
1.2042502e+03
8.2451001e+02
8.4502240e+02
9.7375311e+02
7.8607141e+02
7.3486292e+02
1.3282454e+03
7.5818182e+02
1.1551956e+03
8.5034064e+02
1.3555828e+03
9.9230676e+02
1.4856583e+03
1.1657766e+03
1.5678359e+03
1.6675692e+03
1.3587196e+03
1.7905986e+03
1.5642362e+03
1.8696194e+03
1.9478676e+03
1.8766484e+03
1.6656305e+03
1.7808185e+03
1.4745237e+03
1.3079746e+03
1.9344803e+03
1.1755557e+03
1.0887734e+03
1.0581846e+03
1.0882520e+03
8.3133228e+02
7.5442316e+02
6.7931622e+02
1.1746106e+03
6.9491022e+02
7.9528131e+02
8.3543762e+02
7.6818536e+02
9.5309302e+02
7.0612573e+02
1.3067496e+03
7.2617432e+02
1.1434113e+03
8.2236829e+02
9.7195294e+02
1.4731586e+03
1.3516603e+03
1.1536248e+03
1.5706842e+03
1.6642388e+03
1.3541544e+03
1.7994457e+03
1.5664952e+03
1.8753196e+03
1.9601447e+03
1.8824053e+03
1.7893145e+03
1.6624169e+03
1.4621388e+03
1.2864117e+03
1.9466693e+03
1.1454639e+03
1.0522843e+03
1.0192755e+03
1.0517961e+03
8.2739514e+02
7.3930005e+02
6.4866620e+02
1.1445864e+03
6.5895361e+02
7.6457635e+02
8.2840338e+02
7.5154022e+02
9.3212836e+02
6.7656866e+02
1.2852859e+03
6.9250537e+02
1.1321455e+03
7.9330011e+02
9.5145374e+02
1.4608959e+03
1.3485896e+03
1.1419949e+03
1.5742903e+03
1.6611602e+03
1.3503789e+03
1.8086816e+03
1.5694852e+03
1.8812134e+03
1.9724874e+03
1.8883414e+03
1.7983003e+03
1.6596501e+03
1.4503585e+03
1.2653445e+03
1.9590842e+03
1.1154576e+03
1.0153577e+03
9.7967920e+02
1.0149003e+03
8.2787726e+02
7.2671405e+02
1.1146434e+03
6.1713513e+02
6.2028955e+02
7.3182727e+02
8.2467413e+02
7.3660980e+02
6.4607452e+02
1.2643116e+03
9.1052606e+02
6.5669330e+02
7.6274890e+02
1.1212699e+03
9.3064355e+02
1.4492303e+03
1.3463755e+03
1.1308757e+03
1.5786694e+03
1.6585195e+03
1.3474464e+03
1.8181802e+03
1.5732234e+03
1.8872771e+03
1.9847065e+03
1.8076648e+03
1.8945045e+03
1.6576851e+03
1.4397622e+03
1.2454586e+03
1.9715551e+03
1.0862133e+03
9.7858948e+02
9.3994177e+02
9.7816034e+02
8.3436859e+02
7.1803571e+02
1.0854580e+03
5.8517084e+02
5.7831873e+02
6.9621075e+02
8.2535626e+02
7.2421167e+02
6.1469220e+02
1.2445132e+03
8.8765594e+02
6.1816602e+02
7.3014996e+02
1.1104159e+03
9.0919275e+02
1.4387417e+03
1.3449043e+03
1.1201421e+03
1.5838314e+03
1.6566724e+03
1.3453639e+03
1.5777269e+03
1.8278289e+03
1.8935593e+03
1.8172837e+03
1.9966312e+03
1.9010933e+03
1.6571434e+03
1.4312222e+03
1.2276987e+03
1.9838933e+03
1.0586115e+03
9.4273053e+02
9.0074408e+02
9.4232715e+02
8.4904657e+02
1.0579109e+03
7.1544196e+02
5.5403271e+02
5.3259778e+02
8.3204022e+02
7.1571881e+02
6.5654724e+02
5.8287262e+02
1.2268350e+03
5.7632599e+02
8.6237207e+02
6.9468335e+02
1.0987457e+03
8.8647491e+02
1.4303027e+03
1.3437963e+03
1.1094287e+03
1.6562417e+03
1.3440210e+03
1.5897535e+03
1.5830082e+03
1.8375822e+03
1.9002598e+03
1.8270460e+03
2.0081912e+03
1.9085905e+03
1.6590372e+03
1.4259443e+03
1.9959297e+03
1.2132111e+03
1.0336138e+03
9.0853699e+02
8.6274353e+02
9.0815680e+02
1.0329634e+03
8.7465063e+02
7.2209271e+02
5.2641925e+02
4.8326517e+02
8.4690173e+02
7.1330951e+02
6.1120013e+02
5.5187830e+02
1.2124232e+03
5.3073138e+02
8.3267230e+02
6.5517267e+02
1.0845553e+03
8.6134833e+02
1.4251191e+03
1.0979021e+03
1.3421060e+03
1.6582396e+03
1.3430414e+03
1.5962869e+03
1.5890471e+03
1.8475471e+03
1.9078622e+03
1.8369088e+03
2.0195768e+03
1.9179677e+03
1.6648770e+03
1.4253765e+03
2.0075947e+03
1.2030710e+03
1.0118942e+03
8.7637726e+02
8.2618658e+02
8.7601733e+02
1.0112891e+03
9.1417767e+02
7.4198456e+02
5.0721652e+02
4.3194635e+02
8.7267596e+02
7.2014258e+02
5.2441144e+02
1.2023524e+03
5.5805658e+02
4.8152139e+02
7.9521936e+02
6.0998346e+02
8.3181494e+02
1.4246383e+03
1.0646194e+03
1.0838624e+03
1.3377422e+03
1.6641765e+03
1.3414840e+03
1.6028857e+03
1.5956985e+03
1.8580773e+03
1.9173389e+03
1.8469811e+03
2.0315208e+03
1.9309559e+03
1.6766271e+03
1.4307600e+03
2.0190800e+03
1.1975594e+03
9.9302240e+02
8.4544708e+02
7.9014240e+02
8.4510406e+02
9.9245642e+02
9.7018756e+02
7.7914001e+02
5.0382635e+02
9.1235107e+02
3.8336984e+02
7.4020807e+02
5.0536072e+02
1.1969015e+03
4.9487247e+02
4.3032132e+02
7.4478571e+02
5.5700226e+02
7.9454144e+02
1.4300992e+03
1.0332054e+03
1.0640896e+03
1.3263787e+03
1.6760155e+03
1.3372622e+03
1.6079041e+03
1.6024203e+03
1.8697504e+03
1.9304205e+03
1.8576195e+03
2.0457152e+03
1.9502280e+03
1.6961306e+03
2.0311185e+03
1.4418622e+03
1.1946147e+03
9.7401080e+02
8.1246198e+02
7.5128241e+02
8.1213141e+02
9.7347571e+02
1.0436650e+03
8.3601801e+02
5.2474561e+02
9.6847357e+02
7.7751379e+02
3.4741260e+02
5.0212616e+02
1.1940057e+03
3.8185782e+02
4.2082388e+02
4.9397766e+02
6.7393347e+02
7.4430212e+02
1.4412653e+03
9.8084308e+02
1.0328558e+03
1.2995677e+03
1.6955957e+03
1.3260548e+03
1.6068396e+03
1.6075704e+03
1.9497782e+03
1.8828038e+03
1.8694038e+03
2.0652190e+03
1.9789612e+03
1.7230266e+03
2.0454025e+03
1.4540786e+03
1.1871505e+03
9.4715845e+02
7.7005243e+02
7.0242548e+02
7.6972797e+02
9.4664307e+02
1.1328738e+03
9.1168561e+02
5.7540424e+02
1.0420107e+03
8.3449536e+02
5.2318835e+02
1.1865742e+03
3.4028857e+02
3.4599637e+02
3.4134274e+02
4.2006351e+02
5.7415851e+02
6.7365643e+02
1.4535258e+03
8.9355896e+02
9.8069324e+02
1.2417294e+03
1.7225491e+03
1.2994175e+03
1.5883707e+03
1.6066492e+03
1.9785837e+03
1.8945770e+03
1.8825731e+03
2.0937322e+03
2.0177919e+03
1.7492131e+03
2.0649888e+03
1.4528995e+03
1.1591469e+03
8.9835602e+02
7.0584033e+02
6.3171625e+02
7.0551208e+02
8.9784521e+02
1.2315875e+03
1.0002398e+03
1.1312050e+03
9.1019275e+02
6.5463861e+02
5.7393860e+02
1.1585830e+03
3.8134171e+02
3.3892062e+02
2.7729742e+02
3.4064749e+02
4.4123343e+02
5.7408514e+02
1.4523638e+03
7.5585779e+02
8.9362457e+02
1.1268093e+03
1.7487639e+03
1.2417673e+03
1.5250057e+03
1.5883329e+03
2.0174635e+03
1.8912507e+03
1.8944640e+03
2.1297893e+03
2.0545054e+03
2.0935730e+03
1.7454558e+03
1.4046726e+03
1.0843495e+03
8.0889630e+02
6.0435229e+02
5.2398596e+02
6.0400067e+02
8.0836920e+02
1.3281807e+03
1.2298071e+03
1.0893914e+03
9.9867725e+02
7.5879639e+02
6.5316669e+02
1.0837766e+03
4.7836145e+02
3.7995966e+02
2.6685428e+02
2.7655872e+02
2.9407639e+02
4.4131137e+02
1.4041262e+03
5.6294476e+02
7.5613623e+02
1.7449971e+03
9.2526801e+02
1.1270326e+03
1.3545651e+03
1.5251161e+03
2.0541890e+03
1.8163434e+03
1.8912471e+03
2.1387661e+03
2.1296831e+03
2.0260974e+03
1.6318827e+03
1.2572524e+03
9.3828827e+02
6.6783405e+02
4.5608109e+02
3.6765036e+02
4.5565271e+02
6.6724982e+02
1.3261548e+03
1.3676747e+03
1.0876328e+03
1.1707571e+03
7.5719293e+02
9.3768616e+02
8.9920856e+02
4.7690793e+02
6.2447693e+02
2.6590421e+02
3.5249963e+02
2.9411511e+02
1.2566815e+03
2.1129233e+02
5.6339355e+02
3.4844406e+02
1.6313909e+03
9.2563226e+02
6.4251727e+02
1.3547814e+03
9.9917511e+02
2.0257576e+03
1.8164180e+03
1.4660172e+03
2.1386968e+03
1.8891991e+03
1.6886833e+03
1.2922454e+03
9.9412756e+02
7.4083203e+02
5.0388174e+02
2.8568393e+02
1.8160950e+02
2.8500604e+02
5.0315027e+02
1.3652251e+03
1.1686193e+03
1.2721283e+03
1.2500627e+03
8.9733569e+02
7.4015399e+02
1.0248212e+03
6.2290912e+02
7.2325140e+02
3.5134412e+02
4.2298157e+02
2.1109750e+02
9.9354114e+02
1.9488602e+02
3.4894934e+02
2.3961870e+02
1.2917594e+03
6.4294507e+02
4.6612668e+02
9.9939624e+02
6.9262494e+02
1.6883840e+03
1.4660844e+03
9.4655487e+02
1.8894645e+03
1.1694307e+03
1.1308169e+03
9.7626062e+02
8.2287030e+02
6.3869812e+02
4.3621158e+02
2.2694133e+02
1.1108978e+02
2.2605499e+02
4.3534421e+02
1.2694045e+03
1.2475038e+03
1.0227109e+03
6.3792798e+02
7.2158398e+02
4.2174847e+02
1.9446980e+02
8.2224744e+02
2.4007863e+02
9.7584918e+02
4.6655856e+02
6.9285089e+02
1.1306333e+03
9.4647858e+02
1.1696715e+03
VON_MISES_STRESS_MIDDLE_SURFACE 1 3535  float
1.3390296e+00
3.1312268e+00
3.1544843e+00
4.0701909e+00
4.7928362e+00
4.8589544e+00
5.2793293e+00
4.7959180e+00
1.2503876e+01
4.9234953e+00
5.7314677e+00
1.3741157e+01
9.3346844e+00
3.0634621e+01
2.4890234e+01
5.5056167e+00
1.3715158e+01
3.2716957e+01
1.6832287e+01
4.7991135e+01
3.8174656e+01
5.8870396e+01
6.3960438e+01
3.7005577e+01
1.1113971e+01
7.9627045e+01
2.5812250e+01
6.5871284e+01
1.0002830e+02
5.0557018e+01
9.5705803e+01
7.7586052e+01
1.2131143e+02
8.3453262e+01
2.0172625e+01
1.2048994e+02
3.5530331e+01
6.1670776e+01
1.5785799e+02
1.3429709e+02
1.0813860e+02
8.8994202e+01
1.7513087e+02
1.6740886e+02
3.0568926e+01
1.4205849e+02
2.1079868e+02
4.5614975e+01
1.7848863e+02
1.1787959e+02
7.1890984e+01
2.4313049e+02
9.8898140e+01
2.4026811e+02
1.7686835e+02
1.4773070e+02
3.3040091e+02
4.1481293e+01
2.2225539e+02
3.9339188e+02
5.5931358e+01
1.2633112e+02
3.5901971e+02
8.1712326e+01
1.7626588e+02
1.0816852e+02
2.9979446e+02
1.5348488e+02
2.0689854e+02
2.5117656e+02
1.3457430e+02
8.0931183e+02
5.2538532e+01
6.4243048e+02
6.6408585e+01
4.3185190e+02
1.7911354e+02
2.0085568e+02
9.1519989e+01
2.2713217e+02
1.6039490e+02
3.1446136e+02
1.1741314e+02
2.6049753e+02
1.4322765e+02
2.0191591e+02
2.1942223e+02
1.3056868e+03
6.3607483e+01
1.8491551e+02
8.2781805e+02
1.5657540e+03
7.7019112e+01
1.1277684e+03
4.0389218e+02
1.1194962e+03
1.0151536e+02
6.2441370e+02
9.9205713e+02
1.6850639e+02
2.4008720e+02
7.0048444e+02
2.7430228e+02
8.7764740e+02
1.2695184e+02
8.0191132e+02
3.8043158e+02
2.2159947e+02
6.5918280e+02
4.9274536e+02
2.0773230e+02
2.2759454e+02
7.0484729e+02
1.5245320e+02
2.7905792e+02
6.6334241e+02
2.3750885e+02
1.9288768e+02
5.3324371e+02
3.6658917e+02
5.8582574e+02
7.4662613e+01
8.7747200e+01
4.3606122e+02
2.1729640e+02
5.6884045e+02
1.7762938e+02
1.1176866e+02
5.2105029e+02
2.4080585e+02
5.4914685e+02
2.2886591e+02
2.9920364e+02
5.1480463e+02
2.4325706e+02
2.1626186e+02
1.3687016e+02
4.6274362e+02
3.6884589e+02
4.8851227e+02
2.2113817e+02
4.5621890e+02
2.0224478e+02
1.6223367e+02
2.3237323e+02
4.5196381e+02
2.6555273e+02
4.4803119e+02
4.6188617e+02
4.1359534e+02
8.5716255e+01
3.2584409e+02
2.5261128e+02
9.8581238e+01
4.5041318e+02
2.3857983e+02
1.8749667e+02
1.2226926e+02
3.5891550e+02
2.2997600e+02
2.2626132e+02
2.3709389e+02
4.3342865e+02
3.6792346e+02
3.7494330e+02
4.4672220e+02
3.8822394e+02
1.4714822e+02
2.5245590e+02
2.1245839e+02
4.1173026e+02
2.9989005e+02
1.7247220e+02
4.0578177e+02
4.3567377e+02
2.6354291e+02
2.7194464e+02
2.4076332e+02
2.4945695e+02
2.4769418e+02
4.2478406e+02
3.4659085e+02
2.9440414e+02
2.5131645e+02
3.3651013e+02
1.9789488e+02
9.6778214e+01
2.3705566e+02
1.0950288e+02
4.1966003e+02
1.3297659e+02
2.8635837e+02
3.7589487e+02
3.8145572e+02
4.2642896e+02
1.5772328e+02
3.9958722e+02
3.2710211e+02
2.2320988e+02
1.9185860e+02
2.5248210e+02
2.7526511e+02
2.6079163e+02
2.3112213e+02
2.9466412e+02
4.2016095e+02
4.0219559e+02
2.6093805e+02
2.5699426e+02
1.8306761e+02
4.0940088e+02
3.6181326e+02
2.8149667e+02
3.4443597e+02
2.4831660e+02
2.0867416e+02
7.0054549e-01
1.0784571e+02
1.2048913e+02
1.4827319e+00
1.4768937e+00
3.7277881e+02
3.1504736e+02
4.0980200e+02
2.1212747e+00
4.1015933e+02
2.2470658e+00
2.0978138e+00
1.1783551e+02
2.6480719e+02
1.4384290e+02
3.8578387e+02
2.7489539e+02
5.1756215e+00
5.6207819e+00
1.8196786e+02
2.8747134e+02
2.6508032e+02
1.4591656e+01
2.6637701e+02
1.6852977e+02
5.7322764e+00
4.3489332e+00
2.3432542e+02
3.8611230e+02
1.1940198e+01
1.4600357e+01
3.4705621e+02
2.7279279e+02
2.8248087e+02
2.5906170e+01
2.8860687e+01
3.1781958e+02
1.9393648e+02
1.5302241e+01
1.0247708e+01
4.0611246e+02
3.9821948e+02
2.0641916e+01
2.8790981e+01
4.3206738e+01
3.7825336e+01
3.4370636e+02
4.7827290e+01
3.0883493e+02
3.9142227e+02
3.7175897e+02
2.5989407e+02
3.2361008e+01
1.9103775e+01
7.2805061e+01
2.7759637e+02
2.1973914e+02
5.7042999e+01
6.4544060e+01
2.8929343e+02
3.0367464e+01
1.6119211e+02
4.9066010e+01
3.5653757e+02
1.1890403e+02
2.5124716e+02
3.3683069e+02
3.0003760e+02
7.1772255e+01
4.9313953e+01
2.7764374e+02
1.3151355e+02
7.9182640e+01
3.9984985e+02
1.5482492e+02
6.9649475e+01
3.8705695e+02
8.9881050e+01
2.9343262e+02
2.8720328e+02
3.9281442e+02
2.4571414e+02
5.8599705e+01
2.9673498e+01
2.8493198e+02
4.0696060e+01
7.6927673e+01
1.7951271e+02
3.6492340e+02
6.0094692e+01
1.0100333e+02
3.6054062e+02
9.1892502e+01
1.0428469e+02
3.0938608e+02
3.0698001e+02
8.0858536e+01
2.0501825e+02
1.1898703e+02
1.1937525e+02
2.9076974e+02
3.9277133e+02
1.9962857e+02
9.6756325e+01
4.1049458e+01
3.9200891e+02
3.0365555e+02
2.7172345e+02
3.3043182e+02
1.1590974e+02
5.1336533e+01
3.2004419e+02
1.1491107e+02
2.8973877e+02
1.0283396e+02
2.4905856e+02
1.3119595e+02
1.3721605e+02
3.7711130e+02
7.0321587e+01
3.7151938e+02
3.1290387e+02
2.3103131e+02
2.6176114e+02
2.9417712e+02
9.0964279e+01
1.4984874e+02
1.2993175e+02
1.2573940e+02
1.4041092e+02
3.3209735e+02
1.4254936e+02
3.5205948e+02
1.5430128e+02
5.2573750e+01
2.6565765e+02
3.0819388e+02
2.9732083e+02
1.6588678e+02
1.1254243e+02
1.5688318e+02
6.2062405e+01
1.7238087e+02
2.5732980e+02
3.8965918e+02
8.0255646e+01
1.7583188e+02
3.7626593e+02
3.8560855e+02
1.9063054e+02
1.4849397e+02
3.2705908e+02
3.0466763e+02
3.0426678e+02
1.0046543e+02
2.7773688e+02
1.7445377e+02
3.1782950e+02
1.6283696e+02
3.6866562e+02
1.3463234e+02
3.4420514e+02
2.6378214e+02
2.1627142e+02
3.0206833e+02
2.2546019e+02
2.8377713e+02
1.7502817e+02
1.2164154e+02
2.7200845e+02
6.3846165e+01
3.2603384e+02
2.1689732e+02
2.3369644e+02
7.2709930e+01
3.0239426e+02
2.9501361e+02
3.4598212e+02
1.5654881e+02
1.9556511e+02
2.4251546e+02
1.6969130e+02
9.0119026e+01
3.7894086e+02
3.8621130e+02
3.7878632e+02
3.1144833e+02
1.8000815e+02
1.4330342e+02
3.5450104e+02
2.2444652e+02
1.0981441e+02
1.8238733e+02
3.0994366e+02
1.4090569e+02
1.5357140e+02
2.6914832e+02
3.1262238e+02
1.8651225e+02
3.6174274e+02
1.3067900e+02
1.7699971e+02
3.2594470e+02
1.7763301e+02
2.4333684e+02
3.2757571e+02
7.4685204e+01
3.1803885e+02
1.8772372e+02
1.6502896e+02
2.2531462e+02
8.3189247e+01
3.3175668e+02
2.0185280e+02
3.1431021e+02
1.5507796e+02
1.0004789e+02
3.7966708e+02
1.9703987e+02
1.5221779e+02
3.6208875e+02
3.8208667e+02
1.5371027e+02
2.6576617e+02
3.1120081e+02
2.2766788e+02
1.1932895e+02
3.4188220e+02
2.9604221e+02
3.3940070e+02
3.7255280e+02
3.2773154e+02
1.9746497e+02
1.8674207e+02
3.1597089e+02
1.6283835e+02
1.4001900e+02
2.1038994e+02
1.7421481e+02
2.5416963e+02
8.5063141e+01
2.8686899e+02
3.5622528e+02
9.3475250e+01
3.2279010e+02
1.6167480e+02
1.7798729e+02
1.1010971e+02
3.6703397e+02
3.7888074e+02
3.2643015e+02
1.5180424e+02
2.0861469e+02
3.7769211e+02
3.3204602e+02
2.8115558e+02
1.6455750e+02
3.3957562e+02
2.2481290e+02
1.2917812e+02
1.9692114e+02
3.4542685e+02
1.8814050e+02
3.2630319e+02
1.9538493e+02
1.8421106e+02
3.3932852e+02
3.6704611e+02
1.4986266e+02
3.0495233e+02
2.1315671e+02
3.2019006e+02
3.5298270e+02
3.0851044e+02
9.5044769e+01
2.3918774e+02
3.2121234e+02
1.0359171e+02
2.3963472e+02
2.2077690e+02
1.7180956e+02
3.6988583e+02
3.7712772e+02
3.4846432e+02
1.2032809e+02
2.0804355e+02
2.1304897e+02
3.5193402e+02
2.6597879e+02
1.3942310e+02
3.2798981e+02
3.7337140e+02
3.1993295e+02
1.9502037e+02
3.3585059e+02
3.4625626e+02
1.6027629e+02
3.5885608e+02
2.5452708e+02
3.3798087e+02
2.3033221e+02
2.3366095e+02
3.6232050e+02
2.9334161e+02
1.6260912e+02
3.3793484e+02
1.7548888e+02
3.2912350e+02
1.0473656e+02
1.8264081e+02
3.7133624e+02
3.5511630e+02
1.9929021e+02
1.1358907e+02
2.1996185e+02
1.3070549e+02
3.7492575e+02
3.3237589e+02
2.2452432e+02
3.6676205e+02
3.2680078e+02
3.2117429e+02
1.5005573e+02
3.4867035e+02
2.0657356e+02
3.6938229e+02
2.4706023e+02
2.6934735e+02
2.5081567e+02
1.7123859e+02
3.3022821e+02
2.4705777e+02
2.7793097e+02
3.6029910e+02
3.4911530e+02
3.6064456e+02
2.3252853e+02
3.5837076e+02
3.7207446e+02
1.9411034e+02
3.7202844e+02
3.4298410e+02
1.1425256e+02
3.3737991e+02
1.2352661e+02
3.4933267e+02
3.7269412e+02
2.6324756e+02
1.4123430e+02
3.0569730e+02
3.3787372e+02
2.8403360e+02
1.7330568e+02
1.8635007e+02
2.1876248e+02
1.6103178e+02
2.6081308e+02
2.1043279e+02
3.4624249e+02
3.8072427e+02
3.3249756e+02
3.6589334e+02
1.8267900e+02
2.3594044e+02
3.3402573e+02
3.6467831e+02
3.5240771e+02
3.3286209e+02
2.4560419e+02
2.6253830e+02
2.0611935e+02
3.7248068e+02
2.7895508e+02
3.5515198e+02
1.2369402e+02
2.9857312e+02
1.3345903e+02
3.7519226e+02
3.7073663e+02
2.9001501e+02
3.8511929e+02
1.5190225e+02
3.3741086e+02
3.6257422e+02
2.3146362e+02
3.6038025e+02
2.7481448e+02
1.7229205e+02
3.4638541e+02
3.1821323e+02
3.6299667e+02
1.9450667e+02
3.4447937e+02
3.6117270e+02
2.9425967e+02
3.3815988e+02
3.6876877e+02
2.5906424e+02
1.8388269e+02
3.9485791e+02
1.9712846e+02
2.2155438e+02
3.7307037e+02
3.1297989e+02
2.1855492e+02
3.3569821e+02
3.4705579e+02
2.4739136e+02
1.3313956e+02
3.5259692e+02
1.4342911e+02
1.6269424e+02
2.8898071e+02
3.6925027e+02
2.4455519e+02
2.7434305e+02
3.3783719e+02
1.8377515e+02
3.8988599e+02
3.9803076e+02
3.7621744e+02
3.0924075e+02
3.6967279e+02
3.7116281e+02
3.0221976e+02
2.0662877e+02
3.7293649e+02
2.7280212e+02
3.6072577e+02
3.5464874e+02
3.4323605e+02
3.2728241e+02
2.3130725e+02
3.4371130e+02
3.7404800e+02
3.3087927e+02
4.0915427e+02
1.9433156e+02
1.4264264e+02
3.0325406e+02
2.0781372e+02
3.3861163e+02
1.5346483e+02
3.5062860e+02
2.3264268e+02
2.5792755e+02
1.7359306e+02
3.6834558e+02
3.6025470e+02
3.2397626e+02
2.5886420e+02
3.7818399e+02
1.9542404e+02
3.3852084e+02
4.0471692e+02
2.8621741e+02
3.7742126e+02
2.8673083e+02
4.1084940e+02
2.1896083e+02
3.4151495e+02
3.8172821e+02
3.9003540e+02
3.5907306e+02
3.1453354e+02
3.6268127e+02
3.4239444e+02
2.4427943e+02
3.7556186e+02
3.1759497e+02
3.4912000e+02
1.5223317e+02
3.4368448e+02
3.3853909e+02
1.6357964e+02
2.7148865e+02
4.2360696e+02
1.8457993e+02
3.6806851e+02
3.8688763e+02
3.4916898e+02
3.4152710e+02
2.0464557e+02
2.0718907e+02
2.1839713e+02
3.8236456e+02
3.7361240e+02
2.4368654e+02
3.5571228e+02
3.0078232e+02
2.3143155e+02
3.3936517e+02
2.7034659e+02
4.1967990e+02
4.2361417e+02
3.5800494e+02
2.9814896e+02
2.5739175e+02
3.7768402e+02
3.9212686e+02
4.0401907e+02
3.4186090e+02
3.3197760e+02
3.7051599e+02
3.5299487e+02
3.2694421e+02
2.8516553e+02
1.6192125e+02
3.5438263e+02
1.7377446e+02
3.9589371e+02
1.9563512e+02
3.6842041e+02
3.4814426e+02
4.3821146e+02
3.5661755e+02
2.1902876e+02
3.6990659e+02
3.4440399e+02
3.8783664e+02
3.1490610e+02
2.4398402e+02
2.1481914e+02
2.2887108e+02
3.4030496e+02
3.8711862e+02
2.5467560e+02
3.5747314e+02
2.7058243e+02
3.8043341e+02
4.3477264e+02
3.4638684e+02
3.6740051e+02
4.3636157e+02
2.8182672e+02
4.0240845e+02
3.4156253e+02
3.1012527e+02
2.9890387e+02
3.7819324e+02
4.1816022e+02
4.0526120e+02
1.7170172e+02
1.8404037e+02
3.6937408e+02
3.5951321e+02
2.0673853e+02
3.8412610e+02
3.3943958e+02
2.3090939e+02
3.4748743e+02
3.9385889e+02
3.2906714e+02
3.4722522e+02
4.5296484e+02
2.5657486e+02
3.6966696e+02
3.8180383e+02
3.4129797e+02
2.8380606e+02
3.6081570e+02
3.8379443e+02
3.5742279e+02
2.2484720e+02
4.0076334e+02
2.3922861e+02
2.6560022e+02
4.4999515e+02
4.4912473e+02
4.1501456e+02
3.1266556e+02
3.4144342e+02
4.1261942e+02
2.9329315e+02
1.8155855e+02
3.8575562e+02
3.9839490e+02
1.9436145e+02
4.3245142e+02
2.1787021e+02
3.2213412e+02
3.7088586e+02
4.0042160e+02
3.4324319e+02
3.6453528e+02
2.4280417e+02
3.4713962e+02
3.5200754e+02
2.6917239e+02
3.4998856e+02
3.9624414e+02
4.6786536e+02
3.7526331e+02
3.8282141e+02
2.9703134e+02
3.8773105e+02
3.5779794e+02
3.4231824e+02
4.2515598e+02
3.2642606e+02
4.1453705e+02
4.6534897e+02
2.3472473e+02
4.1273306e+02
4.6193329e+02
2.4946303e+02
3.4146112e+02
2.7645114e+02
4.2280194e+02
1.9146869e+02
2.0471724e+02
2.2901080e+02
3.7290439e+02
3.0473495e+02
4.0749683e+02
3.9324466e+02
3.5742224e+02
2.5469191e+02
4.4688602e+02
3.3416382e+02
3.6947681e+02
3.4704990e+02
4.1075287e+02
2.8175439e+02
3.5270102e+02
3.6463635e+02
3.8973322e+02
3.1023816e+02
3.9219681e+02
4.8291223e+02
3.5854510e+02
4.3567450e+02
3.9607013e+02
3.4335095e+02
3.4017148e+02
4.2715720e+02
4.2843085e+02
2.0140511e+02
3.4158350e+02
4.8083688e+02
4.7481323e+02
2.1508481e+02
4.1504752e+02
2.4444650e+02
2.4014182e+02
3.7160001e+02
3.7537643e+02
4.3299329e+02
2.5956766e+02
2.8721960e+02
4.0069885e+02
2.6655600e+02
4.2535492e+02
3.1614169e+02
3.4717511e+02
4.6145831e+02
2.9430588e+02
3.7436673e+02
4.0423199e+02
3.4620316e+02
3.2341489e+02
3.5537448e+02
3.9714182e+02
4.4655215e+02
3.7731491e+02
3.5961514e+02
4.9810550e+02
3.5389575e+02
4.4168103e+02
3.4438882e+02
4.0940302e+02
2.1133922e+02
2.2544032e+02
4.2303363e+02
3.8577768e+02
3.4178641e+02
4.9646246e+02
2.5124577e+02
3.7825076e+02
4.8778702e+02
4.4243665e+02
4.4006979e+02
4.4322574e+02
2.7838315e+02
2.5400681e+02
2.6953574e+02
4.0815283e+02
3.0681720e+02
2.9789697e+02
4.1876816e+02
3.4747897e+02
3.7923285e+02
3.2750348e+02
4.7616348e+02
3.3655588e+02
4.0251703e+02
4.5776807e+02
3.5824158e+02
3.5802313e+02
4.5631601e+02
3.6096432e+02
3.6759827e+02
3.9003293e+02
5.1344568e+02
3.4542926e+02
4.3141580e+02
4.2281076e+02
2.2124251e+02
3.9996011e+02
2.3576019e+02
4.5491260e+02
3.4205164e+02
2.6230640e+02
3.8148026e+02
5.1222986e+02
2.9016269e+02
5.0087390e+02
4.5352682e+02
4.5654724e+02
4.3335110e+02
3.1928229e+02
4.1563681e+02
3.4793140e+02
2.6339941e+02
2.7936023e+02
3.0847495e+02
4.6930115e+02
3.8410083e+02
4.0827710e+02
3.4965961e+02
4.9099753e+02
3.3881094e+02
4.7107172e+02
3.6066165e+02
3.7026932e+02
3.8128204e+02
3.6255475e+02
3.4647263e+02
5.2893390e+02
4.0278088e+02
4.4015778e+02
4.1415433e+02
4.6989526e+02
2.3108759e+02
2.4602180e+02
2.7330853e+02
3.8502319e+02
4.3628506e+02
3.4236557e+02
3.0188559e+02
5.2814362e+02
5.1409021e+02
4.4799060e+02
3.3169742e+02
4.6391968e+02
4.7075644e+02
4.2317673e+02
3.4850760e+02
4.8113168e+02
4.1438147e+02
3.6272702e+02
2.7261752e+02
3.8899344e+02
2.8903378e+02
4.8595627e+02
3.1894525e+02
5.0595728e+02
3.9495200e+02
3.6330420e+02
3.5005518e+02
3.6435413e+02
3.8227728e+02
4.4922733e+02
3.4752100e+02
4.8502713e+02
4.2836847e+02
5.4457166e+02
2.4084886e+02
4.1555014e+02
2.5620392e+02
2.8423813e+02
3.8884344e+02
3.4271799e+02
3.1354416e+02
4.4981848e+02
4.6269620e+02
5.4420831e+02
3.4406027e+02
5.2744977e+02
4.7442358e+02
4.9324207e+02
3.4918744e+02
4.8505881e+02
4.3079440e+02
3.7576028e+02
4.2079520e+02
5.0097665e+02
3.9393051e+02
2.8165372e+02
4.0861401e+02
2.9854877e+02
5.2104028e+02
3.2929984e+02
3.6633545e+02
3.6596384e+02
3.6122775e+02
5.0031570e+02
4.5859677e+02
4.4261075e+02
3.9425708e+02
3.4857733e+02
2.5050281e+02
2.6628690e+02
5.6036066e+02
3.9291068e+02
2.9508218e+02
4.2833292e+02
3.2513144e+02
4.7747684e+02
3.4310129e+02
3.5636917e+02
4.6340454e+02
5.0561722e+02
5.6042883e+02
5.4096423e+02
4.8505441e+02
3.4995477e+02
3.8876212e+02
4.2748874e+02
5.1613892e+02
4.3850809e+02
4.9944989e+02
4.2227414e+02
3.9892899e+02
3.6847662e+02
2.9050015e+02
3.0789731e+02
5.1576721e+02
3.6865210e+02
5.3624493e+02
4.6824298e+02
3.3953067e+02
4.5688916e+02
3.7232059e+02
3.4964484e+02
2.6002808e+02
2.7625275e+02
4.0620093e+02
3.0582870e+02
3.9719962e+02
5.7630310e+02
4.9234082e+02
3.3664102e+02
3.4350983e+02
4.4112222e+02
3.6862265e+02
5.1824463e+02
4.7703754e+02
5.7681006e+02
5.3144836e+02
4.0173514e+02
4.3443765e+02
5.5464337e+02
3.5079663e+02
4.9582529e+02
4.4633276e+02
4.3593796e+02
5.1392603e+02
4.0400314e+02
5.3138684e+02
3.7075974e+02
4.7814697e+02
4.7121103e+02
3.7137927e+02
5.5157007e+02
2.9914841e+02
3.1707117e+02
3.4962979e+02
2.6940533e+02
2.8608508e+02
3.5072693e+02
3.8332602e+02
3.1646649e+02
4.0168988e+02
5.0729547e+02
3.4806686e+02
5.9240118e+02
4.1810165e+02
3.4393951e+02
5.3111432e+02
3.8081918e+02
4.5391180e+02
5.4690973e+02
4.1468158e+02
4.4162219e+02
5.9335693e+02
4.9071265e+02
3.5170294e+02
5.6849567e+02
5.0674692e+02
4.4961047e+02
4.5428076e+02
5.4717926e+02
5.2848419e+02
4.0916489e+02
3.7317065e+02
4.8829352e+02
4.8558282e+02
3.7415405e+02
5.6701520e+02
3.0758972e+02
2.7861716e+02
3.2606186e+02
2.9576895e+02
5.2234735e+02
3.5182672e+02
3.5958929e+02
3.2698517e+02
4.0636517e+02
3.9423666e+02
3.5940302e+02
5.4421832e+02
6.0865765e+02
4.2995264e+02
3.4438736e+02
3.9295703e+02
5.6252722e+02
4.6669601e+02
4.2760312e+02
4.4902661e+02
3.5266589e+02
6.1007440e+02
5.8252832e+02
5.0442563e+02
5.1782812e+02
4.6329584e+02
5.6314868e+02
4.6236215e+02
4.1442413e+02
4.9867068e+02
3.7569830e+02
5.4312213e+02
5.0001007e+02
3.7698398e+02
2.8764774e+02
5.8258044e+02
5.3750220e+02
3.0529059e+02
3.3737491e+02
4.1121277e+02
3.1581488e+02
3.5294720e+02
3.3486075e+02
3.6940121e+02
3.7064374e+02
5.5755084e+02
4.0504535e+02
4.0503406e+02
6.2507513e+02
3.4485132e+02
5.7830475e+02
4.4174762e+02
4.5663864e+02
4.4050076e+02
4.7946982e+02
3.5367960e+02
6.2696753e+02
4.7699741e+02
5.7929895e+02
5.9674768e+02
5.2907635e+02
5.1817297e+02
4.7058517e+02
5.0926935e+02
5.1449750e+02
3.7833429e+02
4.1978912e+02
5.5783813e+02
3.7987546e+02
5.5276495e+02
2.9648264e+02
3.1463739e+02
3.4762653e+02
4.1622293e+02
5.9826617e+02
3.5409116e+02
5.7110767e+02
3.8178329e+02
3.2381442e+02
3.4345886e+02
3.7905768e+02
4.1704785e+02
5.9424591e+02
3.4533002e+02
4.1574515e+02
6.4165680e+02
4.6444897e+02
4.5337491e+02
4.5348071e+02
5.9563391e+02
3.5473972e+02
4.9071771e+02
4.9222861e+02
6.4404132e+02
6.1115942e+02
5.4049774e+02
5.3195160e+02
5.2008276e+02
5.2904889e+02
4.7895660e+02
3.8107248e+02
4.2526660e+02
5.7263092e+02
5.6813995e+02
3.8283401e+02
3.0510858e+02
3.2379764e+02
3.5773120e+02
4.2138846e+02
5.8488605e+02
6.1407330e+02
3.9281595e+02
3.5526105e+02
6.1035406e+02
4.2899561e+02
3.3157849e+02
3.5184711e+02
3.8855072e+02
3.4582263e+02
4.7245065e+02
6.5840576e+02
4.6622531e+02
4.2632928e+02
4.6514642e+02
6.1215723e+02
5.0445856e+02
3.5584317e+02
5.0496823e+02
6.6130096e+02
6.2576886e+02
5.3110602e+02
5.5209760e+02
5.4366748e+02
4.8748212e+02
5.4575891e+02
3.8390839e+02
4.3086230e+02
5.8363092e+02
5.8749982e+02
3.8586426e+02
3.1351315e+02
3.3276022e+02
3.6768045e+02
4.2670416e+02
5.9888452e+02
4.0373599e+02
3.5645920e+02
6.2663251e+02
6.3000311e+02
4.4087427e+02
3.3909708e+02
3.6001620e+02
3.4632880e+02
4.8063882e+02
4.7905130e+02
3.9787238e+02
6.7532544e+02
6.2887268e+02
4.3679105e+02
5.1822119e+02
4.7673938e+02
3.5698792e+02
6.7875171e+02
5.1768488e+02
5.4233594e+02
5.5835583e+02
6.4058081e+02
5.6388068e+02
3.8683917e+02
4.9616647e+02
5.5959277e+02
4.3658109e+02
5.9924115e+02
3.2168463e+02
3.4151468e+02
6.0244434e+02
3.8897034e+02
6.1310254e+02
3.7746616e+02
4.3216653e+02
4.1453766e+02
6.4308435e+02
3.5768765e+02
4.5268048e+02
6.4605719e+02
4.9185172e+02
4.8901010e+02
3.4684839e+02
6.4578406e+02
3.4635980e+02
3.6795663e+02
4.0701459e+02
6.9241949e+02
5.3200616e+02
4.4712387e+02
3.5817273e+02
4.8825446e+02
5.5377069e+02
5.7311591e+02
6.9639886e+02
6.5559998e+02
5.3037488e+02
5.7585120e+02
3.8986301e+02
5.0501382e+02
6.1497363e+02
5.7345123e+02
4.4242703e+02
6.2754053e+02
3.2961185e+02
3.5005090e+02
3.9215582e+02
3.8708026e+02
4.3777341e+02
6.1746448e+02
6.5971283e+02
4.2521521e+02
3.5894843e+02
4.6441071e+02
6.6223730e+02
5.0462497e+02
4.9756253e+02
6.6289532e+02
3.4738162e+02
3.5335608e+02
5.4581384e+02
3.7565869e+02
7.0969177e+02
4.1596927e+02
3.5939706e+02
4.5732117e+02
5.6540942e+02
5.8794946e+02
4.9968674e+02
7.1424799e+02
6.7083112e+02
5.8801324e+02
5.4303503e+02
3.9297913e+02
6.3083112e+02
5.1402789e+02
5.8733270e+02
4.4840387e+02
6.4219958e+02
3.3728387e+02
3.5835901e+02
3.9651492e+02
4.4352362e+02
3.9542392e+02
6.7652112e+02
4.3576282e+02
6.3256036e+02
4.7606119e+02
3.6024335e+02
6.7854565e+02
5.1736932e+02
5.0629517e+02
6.8021051e+02
3.4792889e+02
5.5964417e+02
3.6007510e+02
7.2714630e+02
3.8311252e+02
3.6066086e+02
4.2472818e+02
5.7725232e+02
6.0285785e+02
4.6737640e+02
5.1103128e+02
7.3230475e+02
6.8627881e+02
3.9618741e+02
6.4681616e+02
6.0037061e+02
5.5566211e+02
5.2321210e+02
6.5708148e+02
4.5451486e+02
6.0123584e+02
3.4469009e+02
3.6642935e+02
6.9351251e+02
4.0576227e+02
4.4941693e+02
3.9877756e+02
4.4617462e+02
6.4773254e+02
4.8762799e+02
3.6157416e+02
6.9773389e+02
5.3008276e+02
5.1520789e+02
6.9498462e+02
3.4849075e+02
5.7349670e+02
7.4478729e+02
3.6650577e+02
3.6196445e+02
5.8930017e+02
3.9030801e+02
6.1784229e+02
4.3328299e+02
4.7728299e+02
5.2228326e+02
7.5057495e+02
6.6293127e+02
3.9948837e+02
7.0194781e+02
6.1292706e+02
5.6825311e+02
5.3256964e+02
6.7218860e+02
3.5181985e+02
4.6076309e+02
3.7425226e+02
7.1069037e+02
4.1481454e+02
6.1515948e+02
4.5545380e+02
4.5644470e+02
4.0221948e+02
4.9910712e+02
6.6298169e+02
7.1547003e+02
3.6294260e+02
5.4276306e+02
5.2430139e+02
7.1155676e+02
3.4906784e+02
5.8737109e+02
6.0155450e+02
3.6330856e+02
6.3290387e+02
7.6261932e+02
3.7263672e+02
3.9723486e+02
4.4162527e+02
4.8703433e+02
6.7917889e+02
4.0288306e+02
7.6906470e+02
7.1784308e+02
5.3343799e+02
6.2568658e+02
6.8752374e+02
5.4210382e+02
5.8080518e+02
3.5866257e+02
7.2805835e+02
3.8181815e+02
4.6715143e+02
4.2366385e+02
4.6163513e+02
6.2910248e+02
4.6656705e+02
4.0575229e+02
5.1049438e+02
7.3342358e+02
6.7830872e+02
3.6435028e+02
5.5540784e+02
5.3357678e+02
6.0126672e+02
3.4966098e+02
7.2826501e+02
6.1401727e+02
6.4804358e+02
3.6469412e+02
7.8064703e+02
3.7845633e+02
4.0388254e+02
4.4974643e+02
6.9556158e+02
4.9662372e+02
4.0637274e+02
7.8778021e+02
7.3396967e+02
7.0309015e+02
5.4449066e+02
6.3865302e+02
7.4562012e+02
5.5181763e+02
3.6520749e+02
5.9331537e+02
3.8911725e+02
4.3230231e+02
4.6796240e+02
4.7368274e+02
4.7653555e+02
6.4306415e+02
4.0937851e+02
5.2178558e+02
7.5159955e+02
3.6579892e+02
6.9371472e+02
5.6801477e+02
5.4303571e+02
6.1518292e+02
3.5027106e+02
7.4511243e+02
6.2669110e+02
6.6326245e+02
3.6612225e+02
7.9887549e+02
7.1208191e+02
3.8395267e+02
4.1024020e+02
4.5763760e+02
4.0995908e+02
7.1889166e+02
5.0604440e+02
8.0672809e+02
7.5033289e+02
6.5183057e+02
5.5543652e+02
7.6337970e+02
5.6171448e+02
3.7144382e+02
3.9613971e+02
4.4072180e+02
4.7443729e+02
6.0578107e+02
4.8035983e+02
4.8634406e+02
7.7000323e+02
4.1310062e+02
6.5704358e+02
5.3297644e+02
5.8058136e+02
5.5268030e+02
3.6729010e+02
7.0920093e+02
6.2911896e+02
3.5089893e+02
7.6210223e+02
6.3957874e+02
6.7856158e+02
3.6759427e+02
8.1730994e+02
7.2874261e+02
3.8911346e+02
4.1629684e+02
4.1364395e+02
7.3493225e+02
4.6528992e+02
8.2591516e+02
5.1528955e+02
7.8134125e+02
7.6693829e+02
6.6522351e+02
3.7736038e+02
5.6627081e+02
4.0287546e+02
5.7179761e+02
4.4891415e+02
4.8106192e+02
4.9598624e+02
4.8718558e+02
6.1819946e+02
7.8864008e+02
5.4406244e+02
4.1692114e+02
6.7104028e+02
5.9310504e+02
5.6251300e+02
3.6882556e+02
7.2476880e+02
6.4307428e+02
3.5154565e+02
6.5268365e+02
7.7923798e+02
6.9394196e+02
3.6911160e+02
7.4554645e+02
8.3595575e+02
7.5121655e+02
4.1742944e+02
3.9392615e+02
4.2204108e+02
7.9950934e+02
4.7269415e+02
8.4534839e+02
7.8379181e+02
5.2435211e+02
6.7883630e+02
3.8294586e+02
4.0931415e+02
4.5687103e+02
4.8783859e+02
5.8207056e+02
5.7698871e+02
5.0545569e+02
8.0751611e+02
4.9416284e+02
6.3056799e+02
5.5503918e+02
4.2084256e+02
6.8505365e+02
6.0558325e+02
5.7253650e+02
3.7040698e+02
6.5704810e+02
7.4041998e+02
3.5221228e+02
6.6600940e+02
7.0940497e+02
7.9652332e+02
3.7067578e+02
7.6249658e+02
8.5481879e+02
7.6774933e+02
4.2131775e+02
8.1788861e+02
3.9837778e+02
4.2746121e+02
4.7984094e+02
8.6503516e+02
8.0089948e+02
3.8818854e+02
4.1544528e+02
6.9267389e+02
5.3322498e+02
4.6458383e+02
4.9476984e+02
5.9253699e+02
5.8758533e+02
8.2663739e+02
5.1474585e+02
5.0129468e+02
5.6590210e+02
6.4288391e+02
4.2486743e+02
6.1801349e+02
5.8275391e+02
6.9908325e+02
3.7203607e+02
6.7103986e+02
7.5615619e+02
3.5289984e+02
6.7956006e+02
7.2495178e+02
8.1396234e+02
3.7228845e+02
7.7959619e+02
8.7390515e+02
7.8453601e+02
4.2531122e+02
8.3648419e+02
4.0245508e+02
4.3254532e+02
8.8498322e+02
8.1826782e+02
3.9307639e+02
4.8672064e+02
4.2125797e+02
7.0674115e+02
5.0185837e+02
4.7204379e+02
5.4190088e+02
8.4601050e+02
6.0320081e+02
5.2384998e+02
5.9805573e+02
5.0858423e+02
5.7664661e+02
6.5514471e+02
4.2899838e+02
6.3039319e+02
5.9316852e+02
7.1312878e+02
3.7371463e+02
6.8504907e+02
7.7197937e+02
3.5360953e+02
6.9333997e+02
7.4058392e+02
8.3155908e+02
3.7395129e+02
7.9684875e+02
8.0158209e+02
8.9322107e+02
4.2941241e+02
8.5530139e+02
3.9759702e+02
4.0614429e+02
9.0520044e+02
4.2674097e+02
4.3728104e+02
8.3590363e+02
5.0910718e+02
4.7924185e+02
4.9332336e+02
8.6564221e+02
7.2104358e+02
5.3276123e+02
5.5037244e+02
6.1406610e+02
5.8726788e+02
6.0839490e+02
5.1603479e+02
6.4271973e+02
6.0378394e+02
6.6734766e+02
4.3323816e+02
6.9907513e+02
7.2718994e+02
3.7544446e+02
7.0735382e+02
7.5630298e+02
7.8789160e+02
3.5434250e+02
8.1425787e+02
8.4931805e+02
3.7566614e+02
8.1889368e+02
8.7434583e+02
9.1277332e+02
4.3362390e+02
4.0173761e+02
4.3188278e+02
8.8553986e+02
9.2569531e+02
8.5381415e+02
4.0943134e+02
4.8616870e+02
5.1651935e+02
4.4165567e+02
7.3558679e+02
4.9963901e+02
5.4147260e+02
6.2513721e+02
5.5863202e+02
5.9776117e+02
5.2364972e+02
6.1859778e+02
6.5499048e+02
6.1460406e+02
4.3758951e+02
6.7949017e+02
7.1311780e+02
3.7722748e+02
7.4126660e+02
7.2160669e+02
7.7211078e+02
3.5510001e+02
8.0389514e+02
8.3182751e+02
3.7743478e+02
8.6724377e+02
8.3647723e+02
8.9362360e+02
4.3794846e+02
9.3256879e+02
4.0548489e+02
9.0571100e+02
4.3667148e+02
5.2409827e+02
4.9281485e+02
9.4647644e+02
8.7200684e+02
4.1230164e+02
4.4565619e+02
7.5037665e+02
5.4997687e+02
5.0565714e+02
6.3641876e+02
6.0812164e+02
5.6667181e+02
5.3143268e+02
6.2865918e+02
6.6720288e+02
6.2563300e+02
4.4205536e+02
6.9156970e+02
7.2717664e+02
3.7906561e+02
7.5535870e+02
7.3610388e+02
7.8800916e+02
3.5588327e+02
8.1999237e+02
8.4956183e+02
3.7925925e+02
8.8534125e+02
8.5433942e+02
9.1314093e+02
4.4238889e+02
9.5261481e+02
9.2616357e+02
4.0882526e+02
4.4109476e+02
5.3184729e+02
4.9917041e+02
9.6755286e+02
8.9048956e+02
5.5826660e+02
7.6541956e+02
4.1474017e+02
4.4926907e+02
6.4791553e+02
6.1834424e+02
5.1136707e+02
5.7448395e+02
5.3938751e+02
6.7935437e+02
6.3687512e+02
6.3857379e+02
4.4663873e+02
7.4125140e+02
7.0358356e+02
3.8096088e+02
7.5085114e+02
7.6946619e+02
8.0400018e+02
3.5669370e+02
8.3618585e+02
8.6746521e+02
3.8114145e+02
8.7248761e+02
9.0361560e+02
9.3290454e+02
4.4694818e+02
9.7291895e+02
9.4690588e+02
4.1174448e+02
4.4513992e+02
5.0522525e+02
5.3977020e+02
9.8893402e+02
5.6633429e+02
9.0927069e+02
7.8072211e+02
4.1673151e+02
6.2842395e+02
4.5248050e+02
6.5963263e+02
5.1675775e+02
6.9144232e+02
6.4833514e+02
5.4751807e+02
5.8206018e+02
6.4833630e+02
4.5134277e+02
7.5534198e+02
7.1552911e+02
3.8291534e+02
7.6585455e+02
8.2008624e+02
7.8358911e+02
3.5753256e+02
8.8554230e+02
8.5247839e+02
3.8308347e+02
8.9092926e+02
9.2207214e+02
9.5292145e+02
4.5162943e+02
9.9348926e+02
9.6794678e+02
4.1422791e+02
4.4879382e+02
5.1096893e+02
5.4787091e+02
5.7417206e+02
1.0106297e+03
9.2835883e+02
7.9629120e+02
6.3835559e+02
4.1825958e+02
6.7157556e+02
4.5527618e+02
5.2181787e+02
7.0346411e+02
6.6001801e+02
5.5582861e+02
5.8939215e+02
4.5617068e+02
7.6944830e+02
6.5794122e+02
7.2740375e+02
3.8493121e+02
7.8112042e+02
8.3626965e+02
7.9772766e+02
3.5840137e+02
9.0379810e+02
8.6887286e+02
9.0967242e+02
3.8508752e+02
9.7319904e+02
9.4071655e+02
4.5643582e+02
9.8929529e+02
1.0143340e+03
4.1626047e+02
4.5204288e+02
5.1639062e+02
5.5615338e+02
5.8177191e+02
1.0326501e+03
9.4776312e+02
6.4813379e+02
8.1213422e+02
6.8374988e+02
4.1930801e+02
7.1541718e+02
6.7192902e+02
4.5764136e+02
5.2653589e+02
5.6432343e+02
5.9647125e+02
7.8357037e+02
4.6112589e+02
6.6738300e+02
7.9665552e+02
8.5255310e+02
7.3920490e+02
3.8701074e+02
8.1188214e+02
3.5930161e+02
9.2223773e+02
9.2872559e+02
8.8537238e+02
3.8715579e+02
9.9374493e+02
9.5955469e+02
4.6137073e+02
1.0109611e+03
1.0354619e+03
4.1782642e+02
4.5487308e+02
5.2147931e+02
5.6462195e+02
5.8912567e+02
1.0550060e+03
6.5775330e+02
9.6749304e+02
8.2825879e+02
6.9616156e+02
7.2729883e+02
6.8407361e+02
4.1985977e+02
4.5956088e+02
5.7300720e+02
5.3089972e+02
7.9770831e+02
6.0328882e+02
4.6621191e+02
6.7665582e+02
8.1246704e+02
8.6893939e+02
3.8915622e+02
7.5092975e+02
8.2605280e+02
3.6023477e+02
9.4086676e+02
9.4809753e+02
9.0198016e+02
3.8929059e+02
1.0145674e+03
9.7859283e+02
4.6643762e+02
1.0329541e+03
1.0568820e+03
4.1890964e+02
4.5726996e+02
5.2622351e+02
5.7328113e+02
5.9622491e+02
6.6720850e+02
1.0777083e+03
9.8755853e+02
8.4467291e+02
6.9645764e+02
7.3910651e+02
7.0881689e+02
4.1989728e+02
4.6101910e+02
5.8188464e+02
5.3489716e+02
8.1186230e+02
6.0983575e+02
4.7143243e+02
8.2856244e+02
6.8575409e+02
8.8543152e+02
3.9137012e+02
7.6257581e+02
9.5969092e+02
3.6120251e+02
8.4024005e+02
9.6779755e+02
3.9149435e+02
9.1869965e+02
1.0356748e+03
9.9783734e+02
4.7164011e+02
1.0552847e+03
1.0786036e+03
4.1949332e+02
4.5921857e+02
5.3061145e+02
5.8213556e+02
6.0306091e+02
6.7649377e+02
1.1007683e+03
1.0079698e+03
8.6138507e+02
7.5083746e+02
7.0908728e+02
7.2172241e+02
5.9096082e+02
8.2603259e+02
4.1940256e+02
4.6199991e+02
5.3851550e+02
4.7679123e+02
6.1610284e+02
8.4494958e+02
9.0203259e+02
6.9467175e+02
3.9365491e+02
7.7414032e+02
9.7871625e+02
3.6220654e+02
8.5444440e+02
9.8783545e+02
1.0570762e+03
3.9376959e+02
9.3553455e+02
4.7698196e+02
1.0779636e+03
1.0172950e+03
4.1956021e+02
4.6070352e+02
1.1006366e+03
5.3463098e+02
5.9119025e+02
6.0962488e+02
6.8560345e+02
1.1241981e+03
1.0287378e+03
7.6248920e+02
7.2196887e+02
8.7840393e+02
7.3488501e+02
8.4021960e+02
6.0024097e+02
4.1835690e+02
4.6248679e+02
5.4174188e+02
4.8229230e+02
8.6163660e+02
9.1874603e+02
6.2208069e+02
7.0340283e+02
3.9601328e+02
9.9794904e+02
7.8562054e+02
3.6324857e+02
1.0082213e+03
8.6866644e+02
1.0787805e+03
3.9611884e+02
9.5248859e+02
1.1010024e+03
4.8246704e+02
1.0369728e+03
4.1909244e+02
4.6170886e+02
5.3826971e+02
6.0045026e+02
1.1229911e+03
6.1590759e+02
6.9453174e+02
1.1480099e+03
1.0498737e+03
7.7405896e+02
7.3510919e+02
8.9573871e+02
7.4831183e+02
8.5442383e+02
6.0973053e+02
4.1674118e+02
4.6246268e+02
8.7863226e+02
4.8793973e+02
5.4456299e+02
9.3557538e+02
6.2775964e+02
3.9844788e+02
7.1194122e+02
1.0173959e+03
7.9701392e+02
3.6433044e+02
1.0289656e+03
8.8290686e+02
1.1007977e+03
3.9854483e+02
9.6956573e+02
1.1244126e+03
4.8809946e+02
1.0568778e+03
4.1807159e+02
4.6221823e+02
5.4151477e+02
6.0992102e+02
1.1456776e+03
6.2189984e+02
7.0327252e+02
1.1722164e+03
7.8554407e+02
7.4851526e+02
1.0713890e+03
9.1339880e+02
7.6201038e+02
8.6864581e+02
6.1943524e+02
4.1453564e+02
8.9594543e+02
9.5252435e+02
4.6191010e+02
4.9373776e+02
5.4696515e+02
6.3312982e+02
4.0096152e+02
1.0370638e+03
7.2028070e+02
8.0831763e+02
1.0500796e+03
3.6545407e+02
1.1231377e+03
8.9716638e+02
4.0105035e+02
9.8677026e+02
1.1482064e+03
4.9388339e+02
1.0770179e+03
4.1647867e+02
4.6221472e+02
5.4435297e+02
6.1960815e+02
1.1687070e+03
6.2759198e+02
7.1181989e+02
7.9694196e+02
7.6219446e+02
1.1968311e+03
1.0932960e+03
9.3139423e+02
8.8288611e+02
7.7598828e+02
6.2936096e+02
9.1358557e+02
9.6959692e+02
4.1172003e+02
4.9969086e+02
4.6081104e+02
5.4893445e+02
6.3818121e+02
4.0355716e+02
1.0569600e+03
7.2841486e+02
1.0715747e+03
3.6662143e+02
8.1952899e+02
1.1458108e+03
9.1144586e+02
4.0363824e+02
1.1723965e+03
1.0041064e+03
4.9982318e+02
1.0974008e+03
4.1429407e+02
4.6168103e+02
5.4677081e+02
6.2951746e+02
6.3297430e+02
1.1920907e+03
7.2016760e+02
8.0824976e+02
7.7615448e+02
1.2218673e+03
1.1156071e+03
9.4973511e+02
8.9714557e+02
7.9025378e+02
6.3951385e+02
9.3156238e+02
9.8679712e+02
5.0580356e+02
4.0827344e+02
4.5914709e+02
5.5045667e+02
1.0770917e+03
4.0623779e+02
6.4290344e+02
7.3633734e+02
1.0934630e+03
3.6783459e+02
8.3064526e+02
1.1688280e+03
9.2574609e+02
4.0631155e+02
1.1969958e+03
1.0215786e+03
5.0592337e+02
1.1180344e+03
4.1149768e+02
4.6059930e+02
5.4875452e+02
6.3965503e+02
6.3803674e+02
1.2158403e+03
7.2830933e+02
8.1946497e+02
7.9040320e+02
1.2473391e+03
1.1383353e+03
9.6843219e+02
9.1142499e+02
8.0481519e+02
6.4990027e+02
9.4988599e+02
1.0041293e+03
5.1208051e+02
4.0417453e+02
4.5689941e+02
1.0974668e+03
5.5151715e+02
4.0900644e+02
6.4728619e+02
1.1157567e+03
7.4404163e+02
3.6909561e+02
1.1922003e+03
8.4166370e+02
4.0907327e+02
9.4006818e+02
1.2220179e+03
1.0391917e+03
5.1218854e+02
1.1389272e+03
4.0806882e+02
4.5895123e+02
5.5028986e+02
6.5002704e+02
6.4276923e+02
1.2399678e+03
7.3623871e+02
8.3058472e+02
8.0494897e+02
1.2732611e+03
1.1614939e+03
9.2572522e+02
9.8749634e+02
8.1968109e+02
9.6856696e+02
1.0215980e+03
6.6052679e+02
5.1852661e+02
3.9940143e+02
1.1180934e+03
4.5404877e+02
5.5210114e+02
4.1186630e+02
1.1384686e+03
6.5131873e+02
7.5152094e+02
1.2159393e+03
3.7040665e+02
8.5258154e+02
4.1192651e+02
1.2474769e+03
9.5441309e+02
1.0569503e+03
5.1862354e+02
1.1600879e+03
4.0398618e+02
4.5671811e+02
5.5136243e+02
6.6064008e+02
6.4716125e+02
7.4394928e+02
1.2644855e+03
8.4160632e+02
8.1980035e+02
1.2996482e+03
9.4004718e+02
1.1850968e+03
1.0069389e+03
8.3486053e+02
9.8761621e+02
1.0392076e+03
6.7140021e+02
5.2514673e+02
1.1389797e+03
3.9393179e+02
4.5057547e+02
4.1482059e+02
5.5219354e+02
1.1616123e+03
6.5499023e+02
1.2400571e+03
3.7176987e+02
7.5876862e+02
8.6339587e+02
4.1487451e+02
1.2733871e+03
9.6878186e+02
5.2523315e+02
1.0748594e+03
3.9922803e+02
1.1815249e+03
4.5388071e+02
5.5195746e+02
6.7150079e+02
6.5120227e+02
7.5143439e+02
1.2894060e+03
8.5252698e+02
8.3496613e+02
9.5439197e+02
1.3265157e+03
1.2091581e+03
1.0267715e+03
8.5036255e+02
1.0070448e+03
1.0569633e+03
6.8252728e+02
5.3194586e+02
1.1601342e+03
3.8774280e+02
1.1852012e+03
4.4645956e+02
4.1787247e+02
5.5177905e+02
1.2645658e+03
6.5828986e+02
3.7318744e+02
7.6577783e+02
8.7410394e+02
1.2997633e+03
4.1792044e+02
9.8317554e+02
5.3202240e+02
1.0929241e+03
3.9377213e+02
4.5041953e+02
1.2032474e+03
6.8261603e+02
5.5205988e+02
6.5488153e+02
7.5868732e+02
1.3147424e+03
8.6334393e+02
8.5045544e+02
9.6876062e+02
1.3538792e+03
1.2336923e+03
1.0470061e+03
1.0268644e+03
8.6619653e+02
1.0748694e+03
6.9391510e+02
1.1815657e+03
5.3892908e+02
1.2092494e+03
4.2102518e+02
3.8081134e+02
4.4168082e+02
5.5084210e+02
1.2894781e+03
6.6120642e+02
3.7466147e+02
7.7254156e+02
1.3266207e+03
8.8470282e+02
4.2106741e+02
9.9759521e+02
5.3899622e+02
1.1111492e+03
3.8759573e+02
4.4631470e+02
5.5165454e+02
6.9399274e+02
1.2252645e+03
6.5818817e+02
7.6570123e+02
1.3405079e+03
8.7405438e+02
8.6627747e+02
9.8315411e+02
1.3817546e+03
1.2587144e+03
1.0676548e+03
1.0470868e+03
1.0929313e+03
8.8237201e+02
7.0557086e+02
1.2032830e+03
5.4610138e+02
1.2337715e+03
4.2428177e+02
3.7311395e+02
1.3148068e+03
4.3621881e+02
5.4936719e+02
6.6372870e+02
3.7619391e+02
7.7905280e+02
1.3539749e+03
8.9518939e+02
4.2431854e+02
1.0120419e+03
5.4615961e+02
1.1295399e+03
3.8067587e+02
4.4154599e+02
5.5072595e+02
7.0563788e+02
1.2475853e+03
6.6111115e+02
7.7246930e+02
1.3667158e+03
8.8465527e+02
8.8244177e+02
9.9757355e+02
1.4101583e+03
1.2842393e+03
1.0887299e+03
1.0677241e+03
1.1111538e+03
8.9889868e+02
7.1750153e+02
1.2252950e+03
5.5346771e+02
1.2587821e+03
4.2764520e+02
1.3405651e+03
3.6462708e+02
4.3005295e+02
5.4733862e+02
3.7778656e+02
6.6584552e+02
1.3818418e+03
7.8530438e+02
4.2767676e+02
9.0556067e+02
1.0265166e+03
5.5351752e+02
1.1481013e+03
3.7298914e+02
4.3609311e+02
5.4925861e+02
7.1755865e+02
6.6363922e+02
1.2702192e+03
7.7898438e+02
8.9514368e+02
8.9895789e+02
1.3933799e+03
1.0120199e+03
1.4391069e+03
1.3102823e+03
1.0887885e+03
1.1295421e+03
1.1102438e+03
9.1578601e+02
7.2971417e+02
1.2476113e+03
5.6103284e+02
1.2842964e+03
1.3667664e+03
4.3111813e+02
3.5532703e+02
4.2316275e+02
5.4474066e+02
3.7944086e+02
6.6754547e+02
1.4102377e+03
7.9128918e+02
4.3114465e+02
9.1581348e+02
1.0410201e+03
5.6107458e+02
1.1668385e+03
3.6451202e+02
4.2993555e+02
5.4723688e+02
7.2976190e+02
6.6576123e+02
1.2931755e+03
7.8523944e+02
9.0551654e+02
9.1583527e+02
1.4205137e+03
1.0264943e+03
1.4686171e+03
1.1102924e+03
1.3368591e+03
1.1481012e+03
1.1322090e+03
9.3304364e+02
7.4221558e+02
1.2702410e+03
5.6880115e+02
1.3103295e+03
1.3934241e+03
4.3470279e+02
3.4519028e+02
4.1552780e+02
3.8115778e+02
5.4155774e+02
1.4391790e+03
6.6881726e+02
7.9699988e+02
4.3472446e+02
9.2594452e+02
5.6883527e+02
1.0555533e+03
1.1857563e+03
3.5522095e+02
4.2305286e+02
5.4464508e+02
7.4225439e+02
6.6746588e+02
1.3164634e+03
7.9122729e+02
9.1577063e+02
9.3308350e+02
1.4481311e+03
1.0409973e+03
1.1322480e+03
1.4987054e+03
1.1668361e+03
1.3639851e+03
1.1546377e+03
9.5068066e+02
1.2931931e+03
7.5501221e+02
1.3368969e+03
5.7677667e+02
1.4205521e+03
4.3840079e+02
3.3419351e+02
4.0712793e+02
3.8293762e+02
1.4686825e+03
5.3777435e+02
6.6964978e+02
8.0242932e+02
4.3841779e+02
9.3595062e+02
5.7680341e+02
1.0701169e+03
3.4509244e+02
1.2048597e+03
4.1542465e+02
5.4146765e+02
7.5504248e+02
6.6874188e+02
1.3400920e+03
7.9694073e+02
9.2590283e+02
9.5071167e+02
1.4762458e+03
1.0555300e+03
1.1546678e+03
1.1857517e+03
1.5293890e+03
1.3916754e+03
1.1775419e+03
9.6870593e+02
1.3164772e+03
7.6810986e+02
1.3640139e+03
5.8496259e+02
1.4481639e+03
4.4221298e+02
1.4987648e+03
3.8477982e+02
3.2231384e+02
3.9794345e+02
5.3337555e+02
6.7003204e+02
4.4222540e+02
8.0757062e+02
9.4582880e+02
5.8498230e+02
1.0847120e+03
3.3410321e+02
4.0703085e+02
1.2241537e+03
5.3768927e+02
7.6813202e+02
6.6957812e+02
8.0237256e+02
1.3640704e+03
9.3590991e+02
9.6872845e+02
1.5048713e+03
1.0700930e+03
1.1775635e+03
1.2048530e+03
1.5606844e+03
1.4199449e+03
1.2009327e+03
9.8712738e+02
1.3401022e+03
7.8151349e+02
1.3916959e+03
5.9336127e+02
1.4762734e+03
4.4613904e+02
1.5294426e+03
3.8668256e+02
3.0952887e+02
3.8795517e+02
5.2834650e+02
6.6995355e+02
4.4614706e+02
8.1241724e+02
9.5557654e+02
5.9337415e+02
1.0993397e+03
3.2223041e+02
3.9785181e+02
5.3329486e+02
7.8152795e+02
1.2436429e+03
6.6996368e+02
8.0751587e+02
1.3884077e+03
9.4578882e+02
9.8714185e+02
1.0846875e+03
1.5340212e+03
1.2009463e+03
1.2241448e+03
1.5926078e+03
1.4488080e+03
1.2248206e+03
1.3640771e+03
1.0059520e+03
7.9522705e+02
1.4199575e+03
6.0197382e+02
1.5048942e+03
4.5017734e+02
1.5607328e+03
3.8864249e+02
2.9581683e+02
3.7714447e+02
5.2267316e+02
6.6940466e+02
4.5018103e+02
8.1696387e+02
9.6519232e+02
6.0198010e+02
1.1140020e+03
3.0945178e+02
3.8786832e+02
5.2826971e+02
7.9523407e+02
1.2633331e+03
6.6988806e+02
8.1236426e+02
1.4131125e+03
9.5553705e+02
1.0059587e+03
1.0993143e+03
1.5637081e+03
1.2248265e+03
1.2436321e+03
1.6251747e+03
1.4782777e+03
1.2492145e+03
1.3884110e+03
1.0251851e+03
1.4488131e+03
8.0925293e+02
1.5340393e+03
6.1079987e+02
4.5432449e+02
1.5926514e+03
3.9065451e+02
2.8115646e+02
3.6549341e+02
5.1634235e+02
4.5432401e+02
6.6837695e+02
8.2120660e+02
9.7467621e+02
6.1079987e+02
1.1287024e+03
2.9574557e+02
3.7706186e+02
5.2259979e+02
8.0925281e+02
1.2832301e+03
6.6934161e+02
8.1691229e+02
1.4381938e+03
9.6515314e+02
1.0251844e+03
1.1139758e+03
1.5939443e+03
1.2492131e+03
1.2633202e+03
1.6583994e+03
1.5083652e+03
1.2741213e+03
1.4131127e+03
1.0448303e+03
1.4782755e+03
8.2359186e+02
1.5637218e+03
6.1983740e+02
4.5857535e+02
1.6252139e+03
3.9271140e+02
2.6552664e+02
3.5298453e+02
5.0934183e+02
4.5857071e+02
6.6686395e+02
8.2514441e+02
6.1983124e+02
9.8403149e+02
1.1434467e+03
2.8109052e+02
3.6541452e+02
5.1627191e+02
8.2358490e+02
6.6831598e+02
1.3033416e+03
8.2115613e+02
9.7463715e+02
1.0448226e+03
1.4636604e+03
1.1286752e+03
1.6247411e+03
1.2741129e+03
1.2832151e+03
1.6922943e+03
1.5390795e+03
1.4381908e+03
1.2995454e+03
1.0648889e+03
1.5083562e+03
8.3824261e+02
1.5939539e+03
6.2908258e+02
4.6292261e+02
1.6584347e+03
3.9480368e+02
2.4890576e+02
3.3960062e+02
5.0166086e+02
4.6291397e+02
6.6486243e+02
8.2878046e+02
6.2907050e+02
9.9326575e+02
1.1582445e+03
2.6546558e+02
3.5290887e+02
5.0927393e+02
8.3822900e+02
6.6680475e+02
1.3236770e+03
8.2509479e+02
9.8399231e+02
1.0648745e+03
1.4895211e+03
1.1434183e+03
1.6561077e+03
1.2995303e+03
1.3033243e+03
1.7268685e+03
1.4636542e+03
1.5704253e+03
1.3254877e+03
1.0853595e+03
1.5390640e+03
8.5320197e+02
1.6247465e+03
6.3852997e+02
4.6735727e+02
1.6923258e+03
3.9691977e+02
2.3127065e+02
3.2532407e+02
4.6734467e+02
4.9329053e+02
6.6237341e+02
8.3212445e+02
6.3851208e+02
1.0023937e+03
2.4884918e+02
3.3952771e+02
1.1731117e+03
5.0159506e+02
8.5318201e+02
6.6480463e+02
1.3442500e+03
8.2873151e+02
9.9322632e+02
1.0853385e+03
1.5157855e+03
1.1582151e+03
1.6880505e+03
1.3254659e+03
1.3236577e+03
1.4895118e+03
1.7621263e+03
1.6024025e+03
1.3519445e+03
1.5704036e+03
1.1062378e+03
1.6561090e+03
8.6846521e+02
6.4817316e+02
1.7268967e+03
4.7186911e+02
3.9904666e+02
2.1259508e+02
4.7185263e+02
3.1013647e+02
4.8422437e+02
6.5940442e+02
8.3519470e+02
6.4814972e+02
1.0114395e+03
2.3121822e+02
3.2525351e+02
1.1880721e+03
4.9322647e+02
8.6843909e+02
6.6231671e+02
8.3207574e+02
1.3650786e+03
1.0023538e+03
1.1062106e+03
1.5424634e+03
1.1730809e+03
1.3519165e+03
1.7205724e+03
1.3442285e+03
1.5157732e+03
1.7980641e+03
1.6350026e+03
1.3789071e+03
1.6023745e+03
1.1275170e+03
1.6880481e+03
8.8402692e+02
6.5800592e+02
1.7621514e+03
4.7644794e+02
4.0117099e+02
4.7642773e+02
1.9284825e+02
2.9401785e+02
4.7445901e+02
6.5597119e+02
6.5797705e+02
8.3802161e+02
1.0204401e+03
2.1254645e+02
3.1006781e+02
4.8416168e+02
8.8399481e+02
1.2031606e+03
6.5934845e+02
8.3514606e+02
1.3861881e+03
1.0113988e+03
1.1274836e+03
1.5695652e+03
1.1880398e+03
1.3788732e+03
1.3650548e+03
1.7536691e+03
1.5424480e+03
1.8346670e+03
1.6682070e+03
1.6349689e+03
1.4063607e+03
1.1491884e+03
1.7205660e+03
8.9988275e+02
6.6802435e+02
1.7980862e+03
4.8108582e+02
4.0328113e+02
4.8106192e+02
1.7199463e+02
2.7694699e+02
4.6399515e+02
6.5210004e+02
6.6799030e+02
8.4064990e+02
1.0294482e+03
1.9280318e+02
2.9395074e+02
4.7439737e+02
8.9984497e+02
1.2184259e+03
6.5591565e+02
8.3797278e+02
1.4076119e+03
1.0203985e+03
1.1491490e+03
1.5971011e+03
1.2031266e+03
1.4063209e+03
1.3861619e+03
1.7873263e+03
1.5695465e+03
1.8719027e+03
1.7019824e+03
1.6681676e+03
1.4342838e+03
1.1712429e+03
1.7536587e+03
9.1603229e+02
6.7822992e+02
1.8346864e+03
4.8577954e+02
4.0536984e+02
4.8575217e+02
1.4999870e+02
2.5890421e+02
4.5283823e+02
6.4782874e+02
6.7819092e+02
8.4314014e+02
1.0385336e+03
1.7195285e+02
2.7688107e+02
4.6393417e+02
9.1598907e+02
6.5204462e+02
1.2339320e+03
8.4060059e+02
1.4293929e+03
1.0294055e+03
1.1711980e+03
1.2183901e+03
1.6250811e+03
1.4342383e+03
1.4075831e+03
1.8215160e+03
1.5970793e+03
1.9097145e+03
1.7019373e+03
1.7362761e+03
1.4626481e+03
1.7873121e+03
1.1936747e+03
9.3248260e+02
6.8863269e+02
1.8719196e+03
4.9053403e+02
4.0743710e+02
4.9050333e+02
1.2684590e+02
2.3988074e+02
4.4099887e+02
6.4320532e+02
6.8858905e+02
8.4556580e+02
1.4996004e+02
1.0477802e+03
2.5883911e+02
4.5277759e+02
9.3243420e+02
6.4777313e+02
1.2497561e+03
8.4309009e+02
1.4515831e+03
1.0384896e+03
1.1936243e+03
1.2338942e+03
1.6535122e+03
1.4625970e+03
1.4293616e+03
1.8561890e+03
1.6250559e+03
1.7362256e+03
1.9480111e+03
1.7710110e+03
1.4914196e+03
1.8214977e+03
1.2164833e+03
9.4925189e+02
1.9097289e+03
6.9925452e+02
4.9536404e+02
4.0949167e+02
4.9533017e+02
1.0261505e+02
2.1990619e+02
4.2849219e+02
6.9920654e+02
6.3828125e+02
8.4800299e+02
1.2681022e+02
2.3981618e+02
1.0572754e+03
4.4093823e+02
9.4919873e+02
6.4314923e+02
1.2659811e+03
8.4551477e+02
1.0477346e+03
1.2164279e+03
1.4742385e+03
1.2497161e+03
1.6823967e+03
1.4913633e+03
1.4515488e+03
1.8912689e+03
1.6534835e+03
1.7709551e+03
1.9866545e+03
1.8060797e+03
1.8561666e+03
1.5205607e+03
1.2396787e+03
9.6637207e+02
1.9480232e+03
7.1012842e+02
5.0029144e+02
4.1154742e+02
5.0025467e+02
7.7742188e+01
1.9912691e+02
4.1533334e+02
7.1007648e+02
6.3309424e+02
8.5050555e+02
1.0258237e+02
2.1984184e+02
1.0670841e+03
4.2843118e+02
9.6631451e+02
6.3822430e+02
1.2826750e+03
8.4795068e+02
1.0572280e+03
1.2396187e+03
1.4974087e+03
1.2659387e+03
1.7117262e+03
1.5204994e+03
1.4742013e+03
1.9266437e+03
1.6823644e+03
1.8060186e+03
2.0254471e+03
1.8413394e+03
1.8912421e+03
1.5500328e+03
1.2632821e+03
9.8388403e+02
1.9866642e+03
7.2128882e+02
5.0533188e+02
4.1360818e+02
5.0529242e+02
5.4175430e+01
1.7806488e+02
7.2123328e+02
4.0152679e+02
6.2763434e+02
8.5305713e+02
7.7712936e+01
1.9906267e+02
4.1527158e+02
9.8382251e+02
1.0771981e+03
6.3303613e+02
8.5045160e+02
1.2998491e+03
1.0670347e+03
1.2632177e+03
1.5211117e+03
1.2826300e+03
1.7414739e+03
1.5499669e+03
1.4973683e+03
1.9621595e+03
1.7116901e+03
1.8412732e+03
2.0641194e+03
1.9266124e+03
1.8766105e+03
1.5797999e+03
1.2873191e+03
1.0018185e+03
2.0254545e+03
7.3274255e+02
5.1045877e+02
4.1562869e+02
5.1041690e+02
4.0190704e+01
1.5849057e+02
7.3268390e+02
3.8704196e+02
6.2178467e+02
8.5548907e+02
5.4151833e+01
1.7800117e+02
4.0146384e+02
1.0017535e+03
1.0874465e+03
6.2757471e+02
8.5300116e+02
1.3173811e+03
1.0771461e+03
1.2872510e+03
1.5452859e+03
1.2998013e+03
1.7715780e+03
1.5797297e+03
1.5210677e+03
1.7414337e+03
1.9976180e+03
1.8765394e+03
1.9621235e+03
2.1023230e+03
1.9116797e+03
1.6098260e+03
1.3117944e+03
1.0201457e+03
2.0641240e+03
7.4440277e+02
5.1552716e+02
4.1743301e+02
5.1548303e+02
4.8540718e+01
7.4434137e+02
1.4363033e+02
3.7176846e+02
6.1523059e+02
4.0179493e+01
1.5842992e+02
8.5735498e+02
3.8697733e+02
1.0200778e+03
6.2172290e+02
1.0973529e+03
8.5543073e+02
1.3348818e+03
1.0873917e+03
1.3117231e+03
1.5696985e+03
1.3173300e+03
1.6097523e+03
1.5452383e+03
1.8019094e+03
1.7715337e+03
2.0327804e+03
1.9116044e+03
1.9975773e+03
2.1396416e+03
1.9463132e+03
1.6400607e+03
1.3366248e+03
2.1023252e+03
1.0386677e+03
7.5596069e+02
5.2013239e+02
4.1856342e+02
5.2008600e+02
7.5589673e+02
7.3416069e+01
1.3588110e+02
3.5544409e+02
6.0734509e+02
4.8546177e+01
1.4357753e+02
8.5776367e+02
3.7170157e+02
1.0385973e+03
6.1516620e+02
1.1059293e+03
8.5729364e+02
1.3514822e+03
1.0972948e+03
1.3365509e+03
1.3348270e+03
1.5937773e+03
1.6399841e+03
1.5696469e+03
1.8321975e+03
1.8018608e+03
2.0673792e+03
1.9462345e+03
2.0327347e+03
2.1756274e+03
1.9802800e+03
1.6703839e+03
1.3614895e+03
2.1396411e+03
1.0568152e+03
7.6666602e+02
5.2337573e+02
4.1803415e+02
5.2332684e+02
7.6659937e+02
1.0641649e+02
1.3700101e+02
3.3757361e+02
5.9708612e+02
7.3429504e+01
1.3583932e+02
3.5537445e+02
1.0567423e+03
8.5521405e+02
6.0727759e+02
1.1114233e+03
8.5769879e+02
1.1058672e+03
1.3614136e+03
1.3655211e+03
1.3514232e+03
1.6163147e+03
1.6703053e+03
1.5937213e+03
1.8618617e+03
1.8321445e+03
2.1011282e+03
1.9801990e+03
2.0673289e+03
2.2098918e+03
2.0133777e+03
1.7004529e+03
1.3855375e+03
2.1756243e+03
1.0733062e+03
7.7499542e+02
5.2353802e+02
4.1397845e+02
5.2348578e+02
7.7492523e+02
1.4191928e+02
1.4073233e+02
3.1741251e+02
1.0643176e+02
5.8302441e+02
1.3697157e+02
3.3750073e+02
1.0732303e+03
8.4753278e+02
5.9701495e+02
1.1111292e+03
8.5514508e+02
1.1113567e+03
1.3854595e+03
1.3741516e+03
1.3654570e+03
1.6349717e+03
1.7003730e+03
1.6162537e+03
1.8896450e+03
1.8618038e+03
2.1336750e+03
2.0132959e+03
2.1010732e+03
2.2422766e+03
2.0454121e+03
1.7293488e+03
2.2098860e+03
1.4068511e+03
1.0856429e+03
7.7828070e+02
5.1771576e+02
4.0325668e+02
5.1765851e+02
7.7820520e+02
1.7554088e+02
1.4290184e+02
2.9422183e+02
1.4193285e+02
1.4071536e+02
5.6370398e+02
3.1733621e+02
1.0855627e+03
5.8294940e+02
8.3223236e+02
8.4745929e+02
1.1014601e+03
1.1110573e+03
1.4067700e+03
1.3730747e+03
1.3740818e+03
1.6455524e+03
1.7292677e+03
1.6349045e+03
1.9128123e+03
1.8895817e+03
2.0453311e+03
2.1644033e+03
2.1336162e+03
2.2731086e+03
2.0760469e+03
1.7547761e+03
2.2422683e+03
1.4216062e+03
1.0896149e+03
7.7245325e+02
5.0172772e+02
3.8129266e+02
5.0166263e+02
7.7236945e+02
2.0247356e+02
1.4113521e+02
2.6842773e+02
1.7555106e+02
1.4289861e+02
2.9414258e+02
1.0895270e+03
5.3864929e+02
5.6362561e+02
8.0757770e+02
8.3215442e+02
1.0790999e+03
1.1013824e+03
1.4215190e+03
1.3567411e+03
1.3729979e+03
1.6412703e+03
1.7546918e+03
1.6454780e+03
1.9257365e+03
1.9127423e+03
2.0759673e+03
2.1916560e+03
2.1643398e+03
2.3035911e+03
2.1041179e+03
1.7716361e+03
2.2730977e+03
1.4231652e+03
1.0791111e+03
7.5279956e+02
4.7086435e+02
3.4258560e+02
4.7078702e+02
7.5270276e+02
2.1600687e+02
1.3579649e+02
2.0247841e+02
1.4114676e+02
2.4480247e+02
2.6834753e+02
1.0790104e+03
5.1011725e+02
5.3856921e+02
7.7477924e+02
8.0749615e+02
1.0434365e+03
1.0790165e+03
1.4230660e+03
1.3210022e+03
1.3566569e+03
1.6127103e+03
1.7715433e+03
1.6411870e+03
1.9177278e+03
1.9256581e+03
2.1040369e+03
2.2111775e+03
2.1915872e+03
2.3357368e+03
2.1262832e+03
2.3035767e+03
1.7698728e+03
1.4016603e+03
1.0486285e+03
7.1665839e+02
4.2237189e+02
2.8270486e+02
4.2227533e+02
7.1654327e+02
2.0752145e+02
2.1600427e+02
1.3758775e+02
1.3582182e+02
2.3717560e+02
2.4472751e+02
1.0485082e+03
4.8622046e+02
5.1003870e+02
7.4062067e+02
7.7469623e+02
9.9990381e+02
1.0433492e+03
1.4015399e+03
1.2686232e+03
1.3209108e+03
1.7697587e+03
1.5553928e+03
1.6126169e+03
1.8715026e+03
1.9176375e+03
2.1261895e+03
2.2121362e+03
2.2110986e+03
2.3728843e+03
2.3357161e+03
2.1336592e+03
1.7323387e+03
1.3516172e+03
9.9993097e+02
6.6907867e+02
3.6219745e+02
2.0606201e+02
3.6207242e+02
6.6893976e+02
2.0750888e+02
1.6736208e+02
1.3761534e+02
1.6086395e+02
2.3711726e+02
9.9978558e+02
2.6534085e+02
4.8614874e+02
4.8226163e+02
7.4053961e+02
7.1763916e+02
9.9981561e+02
1.3514630e+03
9.6036932e+02
1.2685277e+03
1.2129014e+03
1.7321821e+03
1.5552876e+03
1.4824928e+03
1.8713934e+03
1.7875280e+03
2.1335151e+03
2.2120305e+03
2.1674348e+03
2.3728440e+03
2.4099919e+03
2.1013816e+03
1.6590016e+03
1.2865834e+03
9.4841431e+02
6.2693555e+02
3.1656882e+02
1.5019514e+02
3.1641211e+02
6.2677203e+02
1.6734557e+02
1.6087563e+02
1.4432684e+02
1.5385934e+02
2.6530923e+02
9.4824170e+02
2.7490012e+02
4.8220172e+02
4.8321112e+02
7.1756659e+02
7.1067328e+02
9.6028680e+02
1.2863951e+03
9.4606244e+02
1.2128077e+03
1.1906282e+03
1.6587737e+03
1.4823838e+03
1.4502904e+03
1.7873845e+03
1.7406973e+03
2.1010847e+03
2.1672302e+03
2.1331882e+03
2.4098821e+03
2.4144099e+03
2.0742996e+03
1.6170555e+03
1.2584205e+03
9.3005481e+02
6.1704340e+02
3.1677448e+02
1.5024316e+02
3.1661172e+02
6.1686841e+02
1.4429370e+02
1.5384998e+02
2.7486392e+02
9.2986823e+02
4.8315033e+02
7.1060034e+02
9.4597974e+02
1.2582112e+03
1.1905342e+03
1.6168008e+03
1.4501772e+03
1.7405463e+03
2.0737883e+03
2.1328142e+03
2.4143157e+03
VON_MISES_STRESS_BOTTOM_SURFACE 1 3535  float
2.5335127e+02
3.9786810e+02
4.9543555e+02
5.8801703e+02
6.8520264e+02
9.7438245e+02
1.0345546e+03
8.1403046e+02
1.1849067e+03
9.8410815e+02
1.6441714e+03
1.6926649e+03
1.0847328e+03
1.7646554e+03
1.3831600e+03
1.2611603e+03
2.9275845e+03
2.7676492e+03
1.3431055e+03
1.8456460e+03
1.5779126e+03
2.5405002e+03
1.9285607e+03
5.2948999e+03
1.4950955e+03
2.3950906e+03
1.5597758e+03
4.1713281e+03
3.2699919e+03
1.7396411e+03
2.3296743e+03
2.0014873e+03
2.8998386e+03
5.0285332e+03
1.6775615e+03
4.4145840e+03
1.7263956e+03
1.8611742e+03
3.6637808e+03
2.7071638e+03
2.2984932e+03
2.0550369e+03
3.2510007e+03
4.3832769e+03
1.8108160e+03
2.5827534e+03
4.0717368e+03
1.8462004e+03
3.0014648e+03
2.2743127e+03
1.9451315e+03
3.6890430e+03
2.0868652e+03
3.4206516e+03
2.8151462e+03
2.4853557e+03
4.0389182e+03
1.9022487e+03
3.1881812e+03
3.6913652e+03
1.9267648e+03
2.2466658e+03
3.5686104e+03
1.9976714e+03
2.6589915e+03
2.0993262e+03
3.4724702e+03
2.3996626e+03
2.9702708e+03
3.2700718e+03
2.2133628e+03
3.7210061e+03
1.9605249e+03
3.4638086e+03
1.9764786e+03
3.5379333e+03
2.5234036e+03
2.7721162e+03
2.0256794e+03
3.0317080e+03
2.3210396e+03
3.4620686e+03
2.0965994e+03
3.2328098e+03
2.1755876e+03
2.5992727e+03
2.8078311e+03
3.0076855e+03
1.9937406e+03
2.4052512e+03
3.3600784e+03
1.9415558e+03
2.0030170e+03
2.3349375e+03
3.4794731e+03
2.0516401e+03
2.0355239e+03
2.6814058e+03
1.9620972e+03
2.2485388e+03
2.9786653e+03
2.1179324e+03
3.2944912e+03
1.9494191e+03
2.0830103e+03
1.8518782e+03
2.7149280e+03
2.6135325e+03
1.8492091e+03
2.2258972e+03
2.4516509e+03
3.0511055e+03
1.8668940e+03
2.1353950e+03
2.6189399e+03
1.7664122e+03
2.7481318e+03
2.3025432e+03
1.9098573e+03
2.2413374e+03
1.7137828e+03
2.0087067e+03
2.0128060e+03
1.9506250e+03
2.8197727e+03
1.8001672e+03
2.1821228e+03
2.0325460e+03
1.7209709e+03
2.4926707e+03
1.7040242e+03
2.4504590e+03
2.2030493e+03
1.6275881e+03
2.5532212e+03
2.3269785e+03
2.0622937e+03
1.7475056e+03
1.9577253e+03
1.6042644e+03
2.6214548e+03
1.7469711e+03
2.2136042e+03
2.0946650e+03
2.3679780e+03
1.6554830e+03
2.1446638e+03
1.5685896e+03
1.6096888e+03
1.7660332e+03
2.0108231e+03
1.9411315e+03
2.3923699e+03
2.0109266e+03
1.5259814e+03
2.3152747e+03
2.1218394e+03
2.0209559e+03
1.7063785e+03
2.4568201e+03
2.2221282e+03
2.2547717e+03
1.6235778e+03
1.6171062e+03
1.7706133e+03
1.5151105e+03
1.5241226e+03
2.0373705e+03
2.0801602e+03
2.1367793e+03
1.4704026e+03
1.9118368e+03
2.0548186e+03
1.6343406e+03
1.5199124e+03
2.2604670e+03
1.6764685e+03
2.3211638e+03
2.2035112e+03
2.1548240e+03
1.4480406e+03
1.7632013e+03
1.5865544e+03
2.0159991e+03
1.4882360e+03
2.0675581e+03
2.0042000e+03
2.1339744e+03
2.0012369e+03
1.5293403e+03
2.0039215e+03
1.8759188e+03
1.4280536e+03
1.6380992e+03
1.4448433e+03
2.0103854e+03
1.3993365e+03
1.7473098e+03
2.0704849e+03
1.6567152e+03
2.2090525e+03
2.1520569e+03
2.0674229e+03
1.5619908e+03
1.4569508e+03
1.4502751e+03
1.5367789e+03
2.1108940e+03
1.9548877e+03
2.0167955e+03
1.3906664e+03
1.6345227e+03
1.8370710e+03
1.3939354e+03
2.0596965e+03
2.0189728e+03
1.2772323e+02
1.9918711e+03
1.9865736e+03
2.0980066e+02
2.0023010e+02
1.3636492e+03
1.7256283e+03
1.4572107e+03
2.4170724e+02
1.3920374e+03
3.4982364e+02
3.1939462e+02
1.6475664e+03
2.1157471e+03
1.9837394e+03
1.5394169e+03
1.9911233e+03
3.2452774e+02
3.4807532e+02
1.5415864e+03
2.0624417e+03
1.4274204e+03
3.7945020e+02
1.8979249e+03
1.9828309e+03
4.8382932e+02
4.2150729e+02
2.0132511e+03
1.3527013e+03
4.1112369e+02
4.6753473e+02
1.6246930e+03
2.0337783e+03
1.7974500e+03
4.3288425e+02
4.6824063e+02
1.3657561e+03
1.9811425e+03
6.1360651e+02
5.0777469e+02
1.3963226e+03
1.4616289e+03
4.8941446e+02
5.8815808e+02
4.9194608e+02
4.9157425e+02
1.3392742e+03
5.7071240e+02
1.7002850e+03
1.3505811e+03
1.5366339e+03
1.9968849e+03
7.4230908e+02
5.8191315e+02
1.6517252e+03
2.0374634e+03
1.9756562e+03
5.2828680e+02
5.7393994e+02
1.9244458e+03
5.5924036e+02
1.5240944e+03
7.0968793e+02
1.3287140e+03
1.9760217e+03
1.3969911e+03
1.6099926e+03
1.9878354e+03
6.8063110e+02
5.4949005e+02
1.8454597e+03
1.9689664e+03
5.9162665e+02
1.3994944e+03
1.9620194e+03
5.7048749e+02
1.4619652e+03
6.7078442e+02
1.3453293e+03
1.7583990e+03
1.3508682e+03
1.9637622e+03
8.7158411e+02
6.4703497e+02
1.9691943e+03
6.2228674e+02
8.3346466e+02
1.9556943e+03
1.3228525e+03
6.0532263e+02
7.9800024e+02
1.5289852e+03
6.1839886e+02
6.7477185e+02
1.3284303e+03
1.6728917e+03
6.1540387e+02
1.9481160e+03
7.8026221e+02
1.6800775e+03
1.9712657e+03
1.3998438e+03
1.5026490e+03
1.0012127e+03
7.0567950e+02
1.3504854e+03
1.8660570e+03
1.9435344e+03
1.5918492e+03
6.8856683e+02
6.8033710e+02
1.3178342e+03
9.6085925e+02
1.7974999e+03
6.5114111e+02
1.3687825e+03
7.7494922e+02
9.2511487e+02
1.4581367e+03
6.5922406e+02
1.3173805e+03
1.9252777e+03
1.9371208e+03
1.3446407e+03
1.7207651e+03
6.6183301e+02
9.0593781e+02
1.9581906e+03
7.0948834e+02
7.7782397e+02
1.3053774e+03
1.9498314e+03
1.5174933e+03
1.1237841e+03
7.5978760e+02
1.3357955e+03
1.6446851e+03
1.9147731e+03
1.9398529e+03
6.8810266e+02
8.9296155e+02
7.3482709e+02
1.0886898e+03
1.9208662e+03
1.3484174e+03
7.1164349e+02
1.0761855e+03
1.3113730e+03
1.3971274e+03
1.9295895e+03
7.8746411e+02
1.5715453e+03
1.7063112e+03
1.9148933e+03
7.0924536e+02
1.3174788e+03
1.0565735e+03
1.8148184e+03
8.8501709e+02
1.4508171e+03
7.3612903e+02
1.2915215e+03
1.4732123e+03
1.9177734e+03
1.7538882e+03
1.3822924e+03
1.8980022e+03
1.0328406e+03
7.2826172e+02
1.1743070e+03
8.1072577e+02
1.8724698e+03
1.3784272e+03
1.2570831e+03
7.8675751e+02
1.6850798e+03
1.2929812e+03
1.5032991e+03
8.0322382e+02
1.2762717e+03
1.9028649e+03
8.8262036e+02
7.6289587e+02
1.3049772e+03
1.3446597e+03
1.3918158e+03
1.6165896e+03
1.0107128e+03
7.6749091e+02
1.2779303e+03
1.3538427e+03
7.5726221e+02
1.2423735e+03
1.8686387e+03
1.9394376e+03
1.9301312e+03
1.8835735e+03
1.2677686e+03
1.1969189e+03
1.4409319e+03
7.7077148e+02
1.9179523e+03
1.5501538e+03
8.8646912e+02
1.3141355e+03
1.4727595e+03
8.5936328e+02
1.8665975e+03
9.9370221e+02
8.2463550e+02
1.4702590e+03
8.3672021e+02
1.7697710e+03
1.9048657e+03
1.7143895e+03
1.4607643e+03
8.1307855e+02
1.2986543e+03
1.1525969e+03
8.0265613e+02
1.2659470e+03
1.3396532e+03
1.4234578e+03
1.2716534e+03
1.6516556e+03
1.8900452e+03
8.0544922e+02
1.4874485e+03
1.8589510e+03
1.8276254e+03
1.3846368e+03
1.2454248e+03
9.8330792e+02
8.9659772e+02
1.5892715e+03
1.3679890e+03
8.1480652e+02
1.1144530e+03
8.5094263e+02
1.8724026e+03
9.0617651e+02
1.2334841e+03
1.4293965e+03
8.8499243e+02
1.8293066e+03
8.4061731e+02
1.3095269e+03
8.6210297e+02
1.2563333e+03
1.2928445e+03
1.5285134e+03
1.9204750e+03
9.8028827e+02
1.3339375e+03
1.8250135e+03
1.8510425e+03
1.9105015e+03
1.2277246e+03
1.0852916e+03
8.5331860e+02
9.1262958e+02
1.7301090e+03
1.8967607e+03
1.6787312e+03
1.2575267e+03
8.8119373e+02
1.4708044e+03
1.3763102e+03
8.5954095e+02
1.2028894e+03
1.8816918e+03
1.6206472e+03
1.7893466e+03
1.8252958e+03
9.5136475e+02
1.8647866e+03
1.5631820e+03
9.3163745e+02
1.0661587e+03
9.8456909e+02
8.8035803e+02
1.2493827e+03
1.2878606e+03
1.2152415e+03
9.0977386e+02
9.3376801e+02
1.2160417e+03
1.4169840e+03
1.8452821e+03
9.0037677e+02
1.5072386e+03
1.3279868e+03
1.1808973e+03
9.1432245e+02
1.7955991e+03
1.7890623e+03
9.0421454e+02
1.6951509e+03
1.0568964e+03
1.6466243e+03
1.1863184e+03
9.9544922e+02
1.3674324e+03
1.8225637e+03
1.9017662e+03
1.4540221e+03
1.8913455e+03
1.5920936e+03
9.9495343e+02
9.2092908e+02
1.2450530e+03
1.2078094e+03
1.8765343e+03
9.7659808e+02
9.5897498e+02
9.5585938e+02
1.2838585e+03
1.1672377e+03
1.8601173e+03
1.7565300e+03
1.5385995e+03
1.7961558e+03
9.4618127e+02
1.4042852e+03
9.4928009e+02
1.3221440e+03
1.1679347e+03
1.0565106e+03
1.8418142e+03
9.4817920e+02
1.4867478e+03
1.0118342e+03
1.8210945e+03
1.2048549e+03
1.7665762e+03
1.7578793e+03
9.8713507e+02
1.3584404e+03
1.6643145e+03
9.6151508e+02
1.2430878e+03
1.1609586e+03
1.0368757e+03
1.4375626e+03
1.0197648e+03
1.6177756e+03
1.2808556e+03
1.1595669e+03
1.0001420e+03
1.7975421e+03
1.5659506e+03
1.0635520e+03
1.8836006e+03
1.8729050e+03
9.8512518e+02
9.9037238e+02
1.0324713e+03
1.8574022e+03
1.3917135e+03
1.7282960e+03
1.5156677e+03
1.3166172e+03
9.9092383e+02
1.8401171e+03
1.7708151e+03
1.2056106e+03
1.1607987e+03
1.4672998e+03
1.0171895e+03
1.8209299e+03
1.0014619e+03
1.2431096e+03
1.1594843e+03
1.3496217e+03
1.0770297e+03
1.0764137e+03
1.0610214e+03
1.7307634e+03
1.2787664e+03
1.7994761e+03
1.6370981e+03
1.0424462e+03
1.4217235e+03
1.7414838e+03
1.0210723e+03
1.5918954e+03
1.0561282e+03
1.0326840e+03
1.5421155e+03
1.7754794e+03
1.3115009e+03
1.0320731e+03
1.3795332e+03
1.1654293e+03
1.1658765e+03
1.4944294e+03
1.2092609e+03
1.0482147e+03
1.8661461e+03
1.7039369e+03
1.8553118e+03
1.8394104e+03
1.2446947e+03
1.0935474e+03
1.0402764e+03
1.4490295e+03
1.7486903e+03
1.8216210e+03
1.1153138e+03
1.3411415e+03
1.1002701e+03
1.0826483e+03
1.0817034e+03
1.2774431e+03
1.0565045e+03
1.8019362e+03
1.4066744e+03
1.0729387e+03
1.7071392e+03
1.6130663e+03
1.7197134e+03
1.1770564e+03
1.1736010e+03
1.5687030e+03
1.7801083e+03
1.0713729e+03
1.2150303e+03
1.0794562e+03
1.3068085e+03
1.5204476e+03
1.3678918e+03
1.1135864e+03
1.0776100e+03
1.4748557e+03
1.2474246e+03
1.7559595e+03
1.6828779e+03
1.8494885e+03
1.1516471e+03
1.1082776e+03
1.8386233e+03
1.4319817e+03
1.1374437e+03
1.3330750e+03
1.8225515e+03
1.0909634e+03
1.1206760e+03
1.2767098e+03
1.7293048e+03
1.1915654e+03
1.8045353e+03
1.1842234e+03
1.1110350e+03
1.3924908e+03
1.6865292e+03
1.7846449e+03
1.2222362e+03
1.1103293e+03
1.5918384e+03
1.1086687e+03
1.1354003e+03
1.5479308e+03
1.7007711e+03
1.3025020e+03
1.7627145e+03
1.5007838e+03
1.3568533e+03
1.1132339e+03
1.2509196e+03
1.1351241e+03
1.4568690e+03
1.1859761e+03
1.7386356e+03
1.2082103e+03
1.1725074e+03
1.1241270e+03
1.6646492e+03
1.1565017e+03
1.2763895e+03
1.1963964e+03
1.3254364e+03
1.4161377e+03
1.8336584e+03
1.1469321e+03
1.8228485e+03
1.2303105e+03
1.7122679e+03
1.8067855e+03
1.1580988e+03
1.1404045e+03
1.1438838e+03
1.3791825e+03
1.7887557e+03
1.6685345e+03
1.5730807e+03
1.2985164e+03
1.7688822e+03
1.1470135e+03
1.2548571e+03
1.5293270e+03
1.6842538e+03
1.3464243e+03
1.1616956e+03
1.4829502e+03
1.2260573e+03
1.7470563e+03
1.1557853e+03
1.2182770e+03
1.4403618e+03
1.2054567e+03
1.2094108e+03
1.1901343e+03
1.2763207e+03
1.3182020e+03
1.6488634e+03
1.7232178e+03
1.1806351e+03
1.1810116e+03
1.4014379e+03
1.2388033e+03
1.1693821e+03
1.1769995e+03
1.8186506e+03
1.8079661e+03
1.3667158e+03
1.6972581e+03
1.7920537e+03
1.2947767e+03
1.1788867e+03
1.2589773e+03
1.6528198e+03
1.1875981e+03
1.2444031e+03
1.5565009e+03
1.7741760e+03
1.5126582e+03
1.3365759e+03
1.7544907e+03
1.1858152e+03
1.4667716e+03
1.6698306e+03
1.2227311e+03
1.2485526e+03
1.2363129e+03
1.2763657e+03
1.4252103e+03
1.2216104e+03
1.2036542e+03
1.7329288e+03
1.2121821e+03
1.3113276e+03
1.2473744e+03
1.1970674e+03
1.3877979e+03
1.6352000e+03
1.2080385e+03
1.7094639e+03
1.2627382e+03
1.3550312e+03
1.2088436e+03
1.2125637e+03
1.2630815e+03
1.2912092e+03
1.8044373e+03
1.6840101e+03
1.7939357e+03
1.7782882e+03
1.6391013e+03
1.5418422e+03
1.2359698e+03
1.2141598e+03
1.3272581e+03
1.4977103e+03
1.7606932e+03
1.2768291e+03
1.4520776e+03
1.2256924e+03
1.2651176e+03
1.6572289e+03
1.2509869e+03
1.7413298e+03
1.2764147e+03
1.2557783e+03
1.2233478e+03
1.4112843e+03
1.2416349e+03
1.3047598e+03
1.7201569e+03
1.2370527e+03
1.3751202e+03
1.2807079e+03
1.6233921e+03
1.2364233e+03
1.6971714e+03
1.2369120e+03
1.2670251e+03
1.2877474e+03
1.3440549e+03
1.2488602e+03
1.2408112e+03
1.6723042e+03
1.6271387e+03
1.7909771e+03
1.2469098e+03
1.5288799e+03
1.7807068e+03
1.3184104e+03
1.7654180e+03
1.4842891e+03
1.3031501e+03
1.2919282e+03
1.2783357e+03
1.2763835e+03
1.7482098e+03
1.2638474e+03
1.4387064e+03
1.2481721e+03
1.2690702e+03
1.6462229e+03
1.7292748e+03
1.3984541e+03
1.2984427e+03
1.2980784e+03
1.2641132e+03
1.3633035e+03
1.7085902e+03
1.2590834e+03
1.2631456e+03
1.2707090e+03
1.6132167e+03
1.2843342e+03
1.2612290e+03
1.6861699e+03
1.3337073e+03
1.2657958e+03
1.2671783e+03
1.6619574e+03
1.3275736e+03
1.3099692e+03
1.6167274e+03
1.5174182e+03
1.3168137e+03
1.2714755e+03
1.7782211e+03
1.3037372e+03
1.2715347e+03
1.2762114e+03
1.4722196e+03
1.7682238e+03
1.7533721e+03
1.4265083e+03
1.2945745e+03
1.3147063e+03
1.7366360e+03
1.2923232e+03
1.6366246e+03
1.2893033e+03
1.3865953e+03
1.2805062e+03
1.7182152e+03
1.2876155e+03
1.3522467e+03
1.2740701e+03
1.2729746e+03
1.6981002e+03
1.2809229e+03
1.6044865e+03
1.2891649e+03
1.2864362e+03
1.3239082e+03
1.6763163e+03
1.3501670e+03
1.3398502e+03
1.2786025e+03
1.2934624e+03
1.3018716e+03
1.6076934e+03
1.3272783e+03
1.2758568e+03
1.5072864e+03
1.6528167e+03
1.3305159e+03
1.4613466e+03
1.3182399e+03
1.7661173e+03
1.7564296e+03
1.4153461e+03
1.3127137e+03
1.7420819e+03
1.3006948e+03
1.2863523e+03
1.3755913e+03
1.7258893e+03
1.6282771e+03
1.3104032e+03
1.2770728e+03
1.2840475e+03
1.7080543e+03
1.3418539e+03
1.3046678e+03
1.2774760e+03
1.3109856e+03
1.6885763e+03
1.5970438e+03
1.3145807e+03
1.2852026e+03
1.6674891e+03
1.3710046e+03
1.3140042e+03
1.3611190e+03
1.3454792e+03
1.2940576e+03
1.3490488e+03
1.2752930e+03
1.5998882e+03
1.3401610e+03
1.4983359e+03
1.4515319e+03
1.6447537e+03
1.3196805e+03
1.3344384e+03
1.4050962e+03
1.2804856e+03
1.7546128e+03
1.7452673e+03
1.7314827e+03
1.2944349e+03
1.3653350e+03
1.2797019e+03
1.3315972e+03
1.6210480e+03
1.7158947e+03
1.3218915e+03
1.3320353e+03
1.6987063e+03
1.3313351e+03
1.2739637e+03
1.3056521e+03
1.5907557e+03
1.6799232e+03
1.2912739e+03
1.3332240e+03
1.3596022e+03
1.3901648e+03
1.3807039e+03
1.3691396e+03
1.2745044e+03
1.6595852e+03
1.2864719e+03
1.3604329e+03
1.5931851e+03
1.4904387e+03
1.3375137e+03
1.3545725e+03
1.4426545e+03
1.6376594e+03
1.3956479e+03
1.2746838e+03
1.3041499e+03
1.2819565e+03
1.3512881e+03
1.7436554e+03
1.3557290e+03
1.7346824e+03
1.3381467e+03
1.7215135e+03
1.6148258e+03
1.3502968e+03
1.3227083e+03
1.7065841e+03
1.2703630e+03
1.6900956e+03
1.2968301e+03
1.2970559e+03
1.3729131e+03
1.3511951e+03
1.5855092e+03
1.4077274e+03
1.6720581e+03
1.3986893e+03
1.3876410e+03
1.2734836e+03
1.2790636e+03
1.3791494e+03
1.6525161e+03
1.3542568e+03
1.5874757e+03
1.3732104e+03
1.4834836e+03
1.4346083e+03
1.3132214e+03
1.2689126e+03
1.6314418e+03
1.3869034e+03
1.3695676e+03
1.2838447e+03
1.3534877e+03
1.3466862e+03
1.7331943e+03
1.3679561e+03
1.7246222e+03
1.6095160e+03
1.7121178e+03
1.2666553e+03
1.3137982e+03
1.6978959e+03
1.3854552e+03
1.3018953e+03
1.3679951e+03
1.6821552e+03
1.2887311e+03
1.4237731e+03
1.4151593e+03
1.5812081e+03
1.2722284e+03
1.4046417e+03
1.6649091e+03
1.3964023e+03
1.3699797e+03
1.2717865e+03
1.3904446e+03
1.6462057e+03
1.3216893e+03
1.5826675e+03
1.4773752e+03
1.4273005e+03
1.2631410e+03
1.3865261e+03
1.2853809e+03
1.3679764e+03
1.3787759e+03
1.6260216e+03
1.3843992e+03
1.3381285e+03
1.2628258e+03
1.7231813e+03
1.7150370e+03
1.3972803e+03
1.3052378e+03
1.6050376e+03
1.3064995e+03
1.7032428e+03
1.3837042e+03
1.6897736e+03
1.2806224e+03
1.4383810e+03
1.4301960e+03
1.6748250e+03
1.4202284e+03
1.2707401e+03
1.5777708e+03
1.3847552e+03
1.4122809e+03
1.2645988e+03
1.6584127e+03
1.4063647e+03
1.3295981e+03
1.6405878e+03
1.5786813e+03
1.3816793e+03
1.4022516e+03
1.2865820e+03
1.4720309e+03
1.2573418e+03
1.4206506e+03
1.3711893e+03
1.3997106e+03
1.6213306e+03
1.3299867e+03
1.4084447e+03
1.2588624e+03
1.3106757e+03
1.3984019e+03
1.2969666e+03
1.6013213e+03
1.7135701e+03
1.7058796e+03
1.6948395e+03
1.4516285e+03
1.4438795e+03
1.2726801e+03
1.6821661e+03
1.4344843e+03
1.2690222e+03
1.3986571e+03
1.4268705e+03
1.5751268e+03
1.6680513e+03
1.2574628e+03
1.3369955e+03
1.4210569e+03
1.6525129e+03
1.3946641e+03
1.4168293e+03
1.2874673e+03
1.5754489e+03
1.6356045e+03
1.2514904e+03
1.4673800e+03
1.4145889e+03
1.4139727e+03
1.3640770e+03
1.4190063e+03
1.6173097e+03
1.3221996e+03
1.2547548e+03
1.3144574e+03
1.4121663e+03
1.2889304e+03
1.5983073e+03
1.7043167e+03
1.4635906e+03
1.6971058e+03
1.4562866e+03
1.4117579e+03
1.2648590e+03
1.6868623e+03
1.4474893e+03
1.2670791e+03
1.6750264e+03
1.4402529e+03
1.3439286e+03
1.5732161e+03
1.6617855e+03
1.2503440e+03
1.4346035e+03
1.4069972e+03
1.6471602e+03
1.4303403e+03
1.2880557e+03
1.2455646e+03
1.5729119e+03
1.4633616e+03
1.6312050e+03
1.4090547e+03
1.4272640e+03
1.4290233e+03
1.3573806e+03
1.3147128e+03
1.3178781e+03
1.2504939e+03
1.6139072e+03
1.4250724e+03
1.2810813e+03
1.4743385e+03
1.5959435e+03
1.4241283e+03
1.4674906e+03
1.4593195e+03
1.2649154e+03
1.6953794e+03
1.2571188e+03
1.6886735e+03
1.6792687e+03
1.4525061e+03
1.3504441e+03
1.6683109e+03
1.4470828e+03
1.5719866e+03
1.2432113e+03
1.4187435e+03
1.6559839e+03
1.2883658e+03
1.4428622e+03
1.6423093e+03
1.2395442e+03
1.5710203e+03
1.4396603e+03
1.4385516e+03
1.4599232e+03
1.4039955e+03
1.6273440e+03
1.3510493e+03
1.3209695e+03
1.4371921e+03
1.2460715e+03
1.3074785e+03
1.6110779e+03
1.2733757e+03
1.4358352e+03
1.4839399e+03
1.4775610e+03
1.4700471e+03
1.2625359e+03
1.5941848e+03
1.2494224e+03
1.3565863e+03
1.4637035e+03
1.6867185e+03
1.6805430e+03
1.6720186e+03
1.4585684e+03
1.4299650e+03
1.2360363e+03
1.6619799e+03
1.5713934e+03
1.2884154e+03
1.4544679e+03
1.6506057e+03
1.4476453e+03
1.2334103e+03
1.4512322e+03
1.6379200e+03
1.5697308e+03
1.4570200e+03
1.3993660e+03
1.6239811e+03
1.3237622e+03
1.4485935e+03
1.3450382e+03
1.2414801e+03
1.3004543e+03
1.6087814e+03
1.4469429e+03
1.2657751e+03
1.4924591e+03
1.4865637e+03
1.4797401e+03
1.2599448e+03
1.3623975e+03
1.5929915e+03
1.4739143e+03
1.2417366e+03
1.4407200e+03
1.4691301e+03
1.6782963e+03
1.6726763e+03
1.6650746e+03
1.2287925e+03
1.2882208e+03
1.5713975e+03
1.4652263e+03
1.6559956e+03
1.6456141e+03
1.4563556e+03
1.4620470e+03
1.2271455e+03
1.6339557e+03
1.5690066e+03
1.4546134e+03
1.3262844e+03
1.3951270e+03
1.4593408e+03
1.3393085e+03
1.6210800e+03
1.2367124e+03
1.2936025e+03
1.4575114e+03
1.6069821e+03
1.2582448e+03
1.4999557e+03
1.4945601e+03
1.4884618e+03
1.2571461e+03
1.3679171e+03
1.4832034e+03
1.2340310e+03
1.4510640e+03
1.5923286e+03
1.4788330e+03
1.6700763e+03
1.6650377e+03
1.2214557e+03
1.2877976e+03
1.4752019e+03
1.6584012e+03
1.5719648e+03
1.4647307e+03
1.6503235e+03
1.4721674e+03
1.6409747e+03
1.2207335e+03
1.5688156e+03
1.6303826e+03
1.3285627e+03
1.4694940e+03
1.4526703e+03
1.3912443e+03
1.2317615e+03
1.3338260e+03
1.6186078e+03
1.2868900e+03
1.4675969e+03
1.5064857e+03
1.5016073e+03
1.6056481e+03
1.2507531e+03
1.3731825e+03
1.4962719e+03
1.2541432e+03
1.4916312e+03
1.4610486e+03
1.2262776e+03
1.4877379e+03
1.5921655e+03
1.4844547e+03
1.2871597e+03
1.2140032e+03
1.4728163e+03
1.6620238e+03
1.6575929e+03
1.6519648e+03
1.5730663e+03
1.4816520e+03
1.6449305e+03
1.2141589e+03
1.6366556e+03
1.3306219e+03
1.4791093e+03
1.5691302e+03
1.4511626e+03
1.6271697e+03
1.3876890e+03
1.2266206e+03
1.3285609e+03
1.4772526e+03
1.6165348e+03
1.2802869e+03
1.3782283e+03
1.5121007e+03
1.5077585e+03
1.2432716e+03
1.5032252e+03
1.2509391e+03
1.6047506e+03
1.4707223e+03
1.4992542e+03
1.2184507e+03
1.4959012e+03
1.5924750e+03
1.4930409e+03
1.2863202e+03
1.4806548e+03
1.2064139e+03
1.6541056e+03
1.4905553e+03
1.6503087e+03
1.5746759e+03
1.6457334e+03
1.2074069e+03
1.6397859e+03
1.3324850e+03
1.4882389e+03
1.6326272e+03
1.5699272e+03
1.4500663e+03
1.3844354e+03
1.6242885e+03
1.2212830e+03
1.4865273e+03
1.3234871e+03
1.6148336e+03
1.2737665e+03
1.3830870e+03
1.5168483e+03
1.5130629e+03
1.5093728e+03
1.2475360e+03
1.2357744e+03
1.4801301e+03
1.5061241e+03
1.6042642e+03
1.5033755e+03
1.2105262e+03
1.5932327e+03
1.5010122e+03
1.2852913e+03
1.4882864e+03
1.1986680e+03
1.4989282e+03
1.6462893e+03
1.5767715e+03
1.6431537e+03
1.2004633e+03
1.6396765e+03
1.3341735e+03
1.4969316e+03
1.6348602e+03
1.6288612e+03
1.5711868e+03
1.4493610e+03
1.2157421e+03
1.4954672e+03
1.3814623e+03
1.6217126e+03
1.3185815e+03
1.3877893e+03
1.2673053e+03
1.6134795e+03
1.5207719e+03
1.5175651e+03
1.4893142e+03
1.5147615e+03
1.2439364e+03
1.2282377e+03
1.5122891e+03
1.6041653e+03
1.5102090e+03
1.2024821e+03
1.4957487e+03
1.5084167e+03
1.2840842e+03
1.5944175e+03
1.1907461e+03
1.5068175e+03
1.5793337e+03
1.6385436e+03
1.1933146e+03
1.3357075e+03
1.6360972e+03
1.5052327e+03
1.6337649e+03
1.6301259e+03
1.6253317e+03
1.5728917e+03
1.5041145e+03
1.2099916e+03
1.4490297e+03
1.3787510e+03
1.6194174e+03
1.3138242e+03
1.3923639e+03
1.5239113e+03
1.2608820e+03
1.5213062e+03
1.4983141e+03
1.5194340e+03
1.6124495e+03
1.2401418e+03
1.5177931e+03
1.2206398e+03
1.5164463e+03
1.6044332e+03
1.5030767e+03
1.1942971e+03
1.5152988e+03
1.2827094e+03
1.5960105e+03
1.1826302e+03
1.5142667e+03
1.3371066e+03
1.1859474e+03
1.5131837e+03
1.5823461e+03
1.6308381e+03
1.6291096e+03
1.6279703e+03
1.6255563e+03
1.5125092e+03
1.2040249e+03
1.5750282e+03
1.4490581e+03
1.6220137e+03
1.3762856e+03
1.3968379e+03
1.3091978e+03
1.6173800e+03
1.5263021e+03
1.5071664e+03
1.5243234e+03
1.2544773e+03
1.5234294e+03
1.2361542e+03
1.6117227e+03
1.5226765e+03
1.2129602e+03
1.5221282e+03
1.5103040e+03
1.6050492e+03
1.1859515e+03
1.5216993e+03
1.2811770e+03
1.5213159e+03
1.1743027e+03
1.5979951e+03
1.3383885e+03
1.5208237e+03
1.1783489e+03
1.5857941e+03
1.6231436e+03
1.6221624e+03
1.6222661e+03
1.5206881e+03
1.6211261e+03
1.1978357e+03
1.5775847e+03
1.4494349e+03
1.4012374e+03
1.6188839e+03
1.3740533e+03
1.5159058e+03
1.3046870e+03
1.5279764e+03
1.6155790e+03
1.5266499e+03
1.5267832e+03
1.2319745e+03
1.2480742e+03
1.5269758e+03
1.6112798e+03
1.2051804e+03
1.5272920e+03
1.5174620e+03
1.1774263e+03
1.6059960e+03
1.5276558e+03
1.2794965e+03
1.5280022e+03
1.1657467e+03
1.6003566e+03
1.3395712e+03
1.5281888e+03
1.1705063e+03
1.5896658e+03
1.5286859e+03
1.6154309e+03
1.6152277e+03
1.6166259e+03
1.1914177e+03
1.4055872e+03
1.6168114e+03
1.5805519e+03
1.4501514e+03
1.3720433e+03
1.6159203e+03
1.5245646e+03
1.3002789e+03
1.5289631e+03
1.5283159e+03
1.5295273e+03
1.2276044e+03
1.6139944e+03
1.2416570e+03
1.5307246e+03
1.5245807e+03
1.1972830e+03
1.6111033e+03
1.5319720e+03
1.5332024e+03
1.2776770e+03
1.1687032e+03
1.6072585e+03
1.5343597e+03
1.1569454e+03
1.6030825e+03
1.3406710e+03
1.5353124e+03
1.1624072e+03
1.5939513e+03
1.5365347e+03
1.6076721e+03
1.6082783e+03
1.1847648e+03
1.4099108e+03
1.6110245e+03
1.5839229e+03
1.6125890e+03
1.5331736e+03
1.4512003e+03
1.3702468e+03
1.5292872e+03
1.6131021e+03
1.5293480e+03
1.2959625e+03
1.5316902e+03
1.2230448e+03
1.5339526e+03
1.2352120e+03
1.6126078e+03
1.5316885e+03
1.5361992e+03
1.1892511e+03
1.6111771e+03
1.5383708e+03
1.2757278e+03
1.1597648e+03
1.6088232e+03
1.5404202e+03
1.1478826e+03
1.3417047e+03
1.6061619e+03
1.5422255e+03
1.1540391e+03
1.5442648e+03
1.5986427e+03
1.4142316e+03
1.1778704e+03
1.5998397e+03
1.6012880e+03
1.5417616e+03
1.6054379e+03
1.5876926e+03
1.4525775e+03
1.6084366e+03
1.3686575e+03
1.5289708e+03
1.5297695e+03
1.5332975e+03
1.2182972e+03
1.2917285e+03
1.6104092e+03
1.5366874e+03
1.5388130e+03
1.2287266e+03
1.6114019e+03
1.5400020e+03
1.1810698e+03
1.6114865e+03
1.5431902e+03
1.2736576e+03
1.1505940e+03
1.5462125e+03
1.6106781e+03
1.1385419e+03
1.3426881e+03
1.5489573e+03
1.6095856e+03
1.1453895e+03
1.5519047e+03
1.6037336e+03
1.4185718e+03
1.1707284e+03
1.5503562e+03
1.5919067e+03
1.5942308e+03
1.5998422e+03
1.5918583e+03
1.4542802e+03
1.5280331e+03
1.5296011e+03
1.3672706e+03
1.6043334e+03
1.5343718e+03
1.2133627e+03
1.2875692e+03
1.6078232e+03
1.5459805e+03
1.5389529e+03
1.2221896e+03
1.5434056e+03
1.6103604e+03
1.1727241e+03
1.5476866e+03
1.2714753e+03
1.6120179e+03
1.1411742e+03
1.5517638e+03
1.6128127e+03
1.1289073e+03
1.3436373e+03
1.5555345e+03
1.6133462e+03
1.1364460e+03
1.5594811e+03
1.6092198e+03
1.4229535e+03
1.1633326e+03
1.5589836e+03
1.5838464e+03
1.5870817e+03
1.5964188e+03
1.4563079e+03
1.5264901e+03
1.5942147e+03
1.5288601e+03
1.3660834e+03
1.2082428e+03
1.5349330e+03
1.6002587e+03
1.5532167e+03
1.2834788e+03
1.5407710e+03
1.6053263e+03
1.2155913e+03
1.5464336e+03
1.6094685e+03
1.1642006e+03
1.5518846e+03
1.2691901e+03
1.6127595e+03
1.1314889e+03
1.5570990e+03
1.6152181e+03
1.1189629e+03
1.3445682e+03
1.5619829e+03
1.6174376e+03
1.1271963e+03
1.5670195e+03
1.4273986e+03
1.6150985e+03
1.1556769e+03
1.5676692e+03
1.5243556e+03
1.5756328e+03
1.6013749e+03
1.5275619e+03
1.5798157e+03
1.4586617e+03
1.2029388e+03
1.5349984e+03
1.5885332e+03
1.5605465e+03
1.3650947e+03
1.5421610e+03
1.5961930e+03
1.2794530e+03
1.5491068e+03
1.6029017e+03
1.2089230e+03
1.5558063e+03
1.2668109e+03
1.6087126e+03
1.1554860e+03
1.5622412e+03
1.6137007e+03
1.1215222e+03
1.3454967e+03
1.5683262e+03
1.6178866e+03
1.1086921e+03
1.5745442e+03
1.6218557e+03
1.1176273e+03
1.4319286e+03
1.5764374e+03
1.6213685e+03
1.1477552e+03
1.5216405e+03
1.5257189e+03
1.5679944e+03
1.6067290e+03
1.4613450e+03
1.5672402e+03
1.5345831e+03
1.1974528e+03
1.5724088e+03
1.3643057e+03
1.5827762e+03
1.5431401e+03
1.2754889e+03
1.5921178e+03
1.5514440e+03
1.2021771e+03
1.6005339e+03
1.5594719e+03
1.2643474e+03
1.1465677e+03
1.6080800e+03
1.5672120e+03
1.1112579e+03
1.6148318e+03
1.3464388e+03
1.5745867e+03
1.0980789e+03
1.6208119e+03
1.5820784e+03
1.1077266e+03
1.6265977e+03
1.4365651e+03
1.5853116e+03
1.1395614e+03
1.6280306e+03
1.5183536e+03
1.5755846e+03
1.5233413e+03
1.1917866e+03
1.5337000e+03
1.6124856e+03
1.4643625e+03
1.5586433e+03
1.5648374e+03
1.3637186e+03
1.5437233e+03
1.5769227e+03
1.2715854e+03
1.5534624e+03
1.5880153e+03
1.1953477e+03
1.5982081e+03
1.5629006e+03
1.2618093e+03
1.1374343e+03
1.6075590e+03
1.5720319e+03
1.1006803e+03
1.6161447e+03
1.3474113e+03
1.5807860e+03
1.0871063e+03
1.6239894e+03
1.5896445e+03
1.0974811e+03
1.6316619e+03
1.4413298e+03
1.5943154e+03
1.1310896e+03
1.6350869e+03
1.5833412e+03
1.5145015e+03
1.5204374e+03
1.1859426e+03
1.5323597e+03
1.6186505e+03
1.4677211e+03
1.5439238e+03
1.3633380e+03
1.5498173e+03
1.5570780e+03
1.2677430e+03
1.5551772e+03
1.5709528e+03
1.5838680e+03
1.1884293e+03
1.5661094e+03
1.2592070e+03
1.5959103e+03
1.1280743e+03
1.5767196e+03
1.6071392e+03
1.0897733e+03
1.3484307e+03
1.6176323e+03
1.5869447e+03
1.0757577e+03
1.6274154e+03
1.5972642e+03
1.0868773e+03
1.4462448e+03
1.6370486e+03
1.6034712e+03
1.1223337e+03
1.6425410e+03
1.5912880e+03
1.5100884e+03
1.5170133e+03
1.5305713e+03
1.1799240e+03
1.6252317e+03
1.5437534e+03
1.4714292e+03
1.3631698e+03
1.5407372e+03
1.5566028e+03
1.5491079e+03
1.2639635e+03
1.5648463e+03
1.5691145e+03
1.2565516e+03
1.1814182e+03
1.5796600e+03
1.5936277e+03
1.1184773e+03
1.5812932e+03
1.6068113e+03
1.0785210e+03
1.3495146e+03
1.5930823e+03
1.6192891e+03
1.0640155e+03
1.6049587e+03
1.6310881e+03
1.0759021e+03
1.4513324e+03
1.6427596e+03
1.6128016e+03
1.1132883e+03
1.6503984e+03
1.5994492e+03
1.5051172e+03
1.5130735e+03
1.5283422e+03
1.1737339e+03
1.5432219e+03
1.6322386e+03
1.4754973e+03
1.3632219e+03
1.5577513e+03
1.5313790e+03
1.2602506e+03
1.5409045e+03
1.5585845e+03
1.5719308e+03
1.2538546e+03
1.1743118e+03
1.5753754e+03
1.1086332e+03
1.5857698e+03
1.5913484e+03
1.6065670e+03
1.0669073e+03
1.3506813e+03
1.5992179e+03
1.6211104e+03
1.0518619e+03
1.6127489e+03
1.6350068e+03
1.4566155e+03
1.0645414e+03
1.6223292e+03
1.6487980e+03
1.1039478e+03
1.6078492e+03
1.6586661e+03
1.4995887e+03
1.5086206e+03
1.5256781e+03
1.1673763e+03
1.5423383e+03
1.6396826e+03
1.4799375e+03
1.5586345e+03
1.3635042e+03
1.2566095e+03
1.5217186e+03
1.5745725e+03
1.2511284e+03
1.5324460e+03
1.5521488e+03
1.1671085e+03
1.5709995e+03
1.5901659e+03
1.0985326e+03
1.5890612e+03
1.3519495e+03
1.6053704e+03
1.6063993e+03
1.0549163e+03
1.6230930e+03
1.0392789e+03
1.6206554e+03
1.4621176e+03
1.6391721e+03
1.0527812e+03
1.6320763e+03
1.6551683e+03
1.0943068e+03
1.6165126e+03
1.6673524e+03
1.4935021e+03
1.5036558e+03
1.5225834e+03
1.1608562e+03
1.5411099e+03
1.6475768e+03
1.5592628e+03
1.4847640e+03
1.3640280e+03
1.2530474e+03
1.5770529e+03
1.2483867e+03
1.5117323e+03
1.5237108e+03
1.1598087e+03
1.5455211e+03
1.5944974e+03
1.5665182e+03
1.0881669e+03
1.5867561e+03
1.3533390e+03
1.6115577e+03
1.0425314e+03
1.6063020e+03
1.6252351e+03
1.0262474e+03
1.6286989e+03
1.4678629e+03
1.6435862e+03
1.0406072e+03
1.6420654e+03
1.6618770e+03
1.0843602e+03
1.6254646e+03
1.6764678e+03
1.4868550e+03
1.4981787e+03
1.5190613e+03
1.1541792e+03
1.5395432e+03
1.5596460e+03
1.6559359e+03
1.4899927e+03
1.3648070e+03
1.2456438e+03
1.5793844e+03
1.2495731e+03
1.5013967e+03
1.5146774e+03
1.1524137e+03
1.5386843e+03
1.5987800e+03
1.5619182e+03
1.0775280e+03
1.3548708e+03
1.5844240e+03
1.6177985e+03
1.0297361e+03
1.6062701e+03
1.6368999e+03
1.0127480e+03
1.6275359e+03
1.4738766e+03
1.0280043e+03
1.6482526e+03
1.6523198e+03
1.6689314e+03
1.0741039e+03
1.6347310e+03
1.6860237e+03
1.4796439e+03
1.4921880e+03
1.5151138e+03
1.1473519e+03
1.5376438e+03
1.5597928e+03
1.6647766e+03
1.4956414e+03
1.3658568e+03
1.5815796e+03
1.2429156e+03
1.2461978e+03
1.1449266e+03
1.6030287e+03
1.4906885e+03
1.5053251e+03
1.5316216e+03
1.0666086e+03
1.5571870e+03
1.3565670e+03
1.6241105e+03
1.5820566e+03
1.0165138e+03
1.6063000e+03
1.6452794e+03
9.9876044e+02
1.6299960e+03
1.4801846e+03
1.6628625e+03
1.0149577e+03
1.6531763e+03
1.0635336e+03
1.6443384e+03
1.6763411e+03
1.4718640e+03
1.4856809e+03
1.6960338e+03
1.5107422e+03
1.1403821e+03
1.5354166e+03
1.5597118e+03
1.6741176e+03
1.5017300e+03
1.5836500e+03
1.2402192e+03
1.3671951e+03
1.2429341e+03
1.6072587e+03
1.1373524e+03
1.4795850e+03
1.4956334e+03
1.5243167e+03
1.0554027e+03
1.3584508e+03
1.6305123e+03
1.5523127e+03
1.5796467e+03
1.0028477e+03
1.6538585e+03
1.6063890e+03
9.8426385e+02
1.4868142e+03
1.6326173e+03
1.6737175e+03
1.0014518e+03
1.6583638e+03
1.6543141e+03
1.0526458e+03
1.6841169e+03
1.4635092e+03
1.4786537e+03
1.5059464e+03
1.1332791e+03
1.7065131e+03
1.5328657e+03
1.5594109e+03
1.6839791e+03
1.5082804e+03
1.5856075e+03
1.2375734e+03
1.3688417e+03
1.2397975e+03
1.6114854e+03
1.1296976e+03
1.4680634e+03
1.4855825e+03
1.3605470e+03
1.0439048e+03
1.5167538e+03
1.6370223e+03
1.5472844e+03
9.8872064e+02
1.5771881e+03
1.6626591e+03
1.6065355e+03
9.6923645e+02
1.4937938e+03
1.6354032e+03
1.6849094e+03
9.8747107e+02
1.6638230e+03
1.6646865e+03
1.0414379e+03
1.6922714e+03
1.4545721e+03
1.4711017e+03
1.5007261e+03
1.1260535e+03
1.7174784e+03
1.5299946e+03
1.5588976e+03
1.6943835e+03
1.5874637e+03
1.2349985e+03
1.5153165e+03
1.3708185e+03
1.2368053e+03
1.6157239e+03
1.1219713e+03
1.4561016e+03
1.3628821e+03
1.6436595e+03
1.4751523e+03
1.0321108e+03
1.5089181e+03
1.5420918e+03
9.7411554e+02
1.6717031e+03
1.5746754e+03
1.6067393e+03
1.5011530e+03
9.5365558e+02
1.6964633e+03
1.6383583e+03
9.7299939e+02
1.6695634e+03
1.6754849e+03
1.0299083e+03
1.7008186e+03
1.4450453e+03
1.4630195e+03
1.4950800e+03
1.1187177e+03
1.7289484e+03
1.5268065e+03
1.5581796e+03
1.5892300e+03
1.2325170e+03
1.7053551e+03
1.5228644e+03
1.3731500e+03
1.6199899e+03
1.2339778e+03
1.1141846e+03
1.3654839e+03
1.6504431e+03
1.4436775e+03
1.0200179e+03
1.4643241e+03
1.5007949e+03
1.5367253e+03
9.5901489e+02
1.6810137e+03
1.5721042e+03
1.5089227e+03
9.3749780e+02
1.6070012e+03
1.7084053e+03
1.6414885e+03
9.5802051e+02
1.6867399e+03
1.6755958e+03
1.0180564e+03
1.7097743e+03
1.4349194e+03
1.4544008e+03
1.4890063e+03
1.1112861e+03
1.5233040e+03
1.7409431e+03
1.5572638e+03
1.5909180e+03
1.2301532e+03
1.7169200e+03
1.5309523e+03
1.3758633e+03
1.6242992e+03
1.2313376e+03
1.1063510e+03
1.3683826e+03
1.6573931e+03
1.0076249e+03
1.4307697e+03
1.4530786e+03
1.4923705e+03
1.6906143e+03
9.4340149e+02
1.5311763e+03
1.5694713e+03
1.5171356e+03
9.2073865e+02
1.6073231e+03
1.7207625e+03
1.6448010e+03
9.4251819e+02
1.6984832e+03
1.6819330e+03
1.0058829e+03
1.7191559e+03
1.4241853e+03
1.4452386e+03
1.4825028e+03
1.1037756e+03
1.5194897e+03
1.7534847e+03
1.5561577e+03
1.5925397e+03
1.2279340e+03
1.7291066e+03
1.5396105e+03
1.3789875e+03
1.6286682e+03
1.2289104e+03
1.0984869e+03
1.3716097e+03
1.6645300e+03
9.9493237e+02
1.4173568e+03
1.4413976e+03
1.7005295e+03
1.4836313e+03
9.2725787e+02
1.5254368e+03
1.5258259e+03
1.5667739e+03
9.0335254e+02
1.7335629e+03
1.6077081e+03
9.2647589e+02
1.6483047e+03
1.7107480e+03
1.6885887e+03
9.9339044e+02
1.7289825e+03
1.4128325e+03
1.4355259e+03
1.4755669e+03
1.0962054e+03
1.5153660e+03
1.7665972e+03
1.5548684e+03
1.5941072e+03
1.2258887e+03
1.7419449e+03
1.5488717e+03
1.6331136e+03
1.3825549e+03
1.2267250e+03
1.3751996e+03
1.6718751e+03
1.0906124e+03
9.8194324e+02
1.4034180e+03
1.7107848e+03
1.4292633e+03
1.4745646e+03
9.1056689e+02
1.5350294e+03
1.5194994e+03
1.5640107e+03
1.7468356e+03
8.8531305e+02
1.6081606e+03
9.0987744e+02
1.7235688e+03
1.6520093e+03
1.6955786e+03
9.8058350e+02
1.7392751e+03
1.4008506e+03
1.4252544e+03
1.4681956e+03
1.0885978e+03
1.5109347e+03
1.5534032e+03
1.7803058e+03
1.5956329e+03
1.2240492e+03
1.7554675e+03
1.6376531e+03
1.5587710e+03
1.3866002e+03
1.2248131e+03
1.3791884e+03
1.6794506e+03
1.0827504e+03
9.6866284e+02
1.7214065e+03
1.3889330e+03
1.4166581e+03
8.9331171e+02
1.4651581e+03
1.5447838e+03
1.5133574e+03
1.7606111e+03
8.6659265e+02
1.5611810e+03
1.6086858e+03
8.9270667e+02
1.7369816e+03
1.6559261e+03
9.6746899e+02
1.7029194e+03
1.3882281e+03
1.7500558e+03
1.4144160e+03
1.4603855e+03
1.0809780e+03
1.5061982e+03
1.5517697e+03
1.7946381e+03
1.5971298e+03
1.2224508e+03
1.6423043e+03
1.7697085e+03
1.5693453e+03
1.3911611e+03
1.2232104e+03
1.3836146e+03
1.6872792e+03
1.0749280e+03
9.5509955e+02
1.7324222e+03
1.3738820e+03
1.5551285e+03
1.4035651e+03
8.7547601e+02
1.4554000e+03
1.7749208e+03
1.5070049e+03
8.4716278e+02
1.5582847e+03
1.6092898e+03
1.7510239e+03
8.7494806e+02
1.6600676e+03
9.5405670e+02
1.7106298e+03
1.3749540e+03
1.4030022e+03
1.7613489e+03
1.0733752e+03
1.4521333e+03
1.5011582e+03
1.5499752e+03
1.8096233e+03
1.5986106e+03
1.2211316e+03
1.6470861e+03
1.7847042e+03
1.5806344e+03
1.3962782e+03
1.3885195e+03
1.2219562e+03
1.6953846e+03
1.0671765e+03
1.7438605e+03
9.4126544e+02
1.5661051e+03
8.5704437e+02
1.3582458e+03
1.3899680e+03
1.4452791e+03
1.7897976e+03
1.5004364e+03
8.2699377e+02
1.5553225e+03
1.7657350e+03
1.6099801e+03
8.5658685e+02
1.6644474e+03
9.4035999e+02
1.7187294e+03
1.3610166e+03
1.3910044e+03
1.4434353e+03
1.0658231e+03
1.7731798e+03
1.4958168e+03
1.5480277e+03
1.8252922e+03
1.6000892e+03
1.2201335e+03
1.6520175e+03
1.8004934e+03
1.5926802e+03
1.4019950e+03
1.3939470e+03
1.7037919e+03
1.2210934e+03
1.0595323e+03
1.7557510e+03
9.2717670e+02
1.5777570e+03
8.3800269e+02
1.3420062e+03
1.8052756e+03
1.3758511e+03
1.4347843e+03
1.4936471e+03
8.0605524e+02
1.5522961e+03
1.7811555e+03
1.6107645e+03
8.3760944e+02
1.6690800e+03
9.2639630e+02
1.7272393e+03
1.3464044e+03
1.3784137e+03
1.4342877e+03
1.0583594e+03
1.7855759e+03
1.4901757e+03
1.5459347e+03
1.8416776e+03
1.6015793e+03
1.2195021e+03
1.6571183e+03
1.8171162e+03
1.6055269e+03
1.4083583e+03
1.3999435e+03
1.7125260e+03
1.2206697e+03
1.0520370e+03
1.7681245e+03
9.1285461e+02
1.5901293e+03
8.1833838e+02
1.8213905e+03
1.3251455e+03
1.3611992e+03
1.4239056e+03
7.8431586e+02
1.4866322e+03
1.7973281e+03
1.5492075e+03
8.1800391e+02
1.6116520e+03
1.6739811e+03
9.1218799e+02
1.7361816e+03
1.3311060e+03
1.3652213e+03
1.4246865e+03
1.0510273e+03
1.4842366e+03
1.7985657e+03
1.5437042e+03
1.6030952e+03
1.2192867e+03
1.8588138e+03
1.6624089e+03
1.8346154e+03
1.6192211e+03
1.4065583e+03
1.7216135e+03
1.4154177e+03
1.2207367e+03
1.0447382e+03
1.7810129e+03
8.9832642e+02
1.6032698e+03
1.8381790e+03
7.9804138e+02
1.3076477e+03
1.3459982e+03
1.4126332e+03
7.6174359e+02
1.4793878e+03
1.8142969e+03
1.5460588e+03
7.9776068e+02
1.6126519e+03
1.6791671e+03
8.9776318e+02
1.7455798e+03
1.3151105e+03
1.3514186e+03
1.4146278e+03
1.0438759e+03
1.4780013e+03
1.8121791e+03
1.5413442e+03
1.6046510e+03
1.2195413e+03
1.8767368e+03
1.6679103e+03
1.8530350e+03
1.4138438e+03
1.6338119e+03
1.7310815e+03
1.4232261e+03
1.2213508e+03
1.0376898e+03
1.7944492e+03
8.8362646e+02
1.6172280e+03
1.8556791e+03
7.7710480e+02
1.2894974e+03
1.3302347e+03
7.3830615e+02
1.4009574e+03
1.8321078e+03
1.4719102e+03
1.5428533e+03
7.7687329e+02
1.6137739e+03
8.8315723e+02
1.6846553e+03
1.7554583e+03
1.2984073e+03
1.3369973e+03
1.4041074e+03
1.0369607e+03
1.4714713e+03
1.8264471e+03
1.5388624e+03
1.6062615e+03
1.2203239e+03
1.8954840e+03
1.6736434e+03
1.4218550e+03
1.8724219e+03
1.7409576e+03
1.6493502e+03
1.4318397e+03
1.2225732e+03
1.8084673e+03
1.0309534e+03
1.6320554e+03
8.6879724e+02
1.8739304e+03
7.5552576e+02
1.2706818e+03
1.3138966e+03
7.1397125e+02
1.8508081e+03
1.3888696e+03
1.4641959e+03
1.5395939e+03
7.5533942e+02
1.6150288e+03
8.6841339e+02
1.6904633e+03
1.2809873e+03
1.7658419e+03
1.3219496e+03
1.3931216e+03
1.0303440e+03
1.4646481e+03
1.8414023e+03
1.5362668e+03
1.6079412e+03
1.2216971e+03
1.9150942e+03
1.6796300e+03
1.4306499e+03
1.7512703e+03
1.8928240e+03
1.6658895e+03
1.4413174e+03
1.2244700e+03
1.8231019e+03
1.0245978e+03
1.6478058e+03
8.5389111e+02
1.8929736e+03
7.3330701e+02
1.8704473e+03
6.8870703e+02
1.2511890e+03
1.2969730e+03
1.3763618e+03
1.4562422e+03
7.3316217e+02
1.5362845e+03
1.6164272e+03
8.5358478e+02
1.6966094e+03
1.2628418e+03
1.3062682e+03
1.7767567e+03
1.3816663e+03
1.0240962e+03
1.4575330e+03
1.5335652e+03
1.8570778e+03
1.6097048e+03
1.2237289e+03
1.9356075e+03
1.6858918e+03
1.4402897e+03
1.7620482e+03
1.9142913e+03
1.6834852e+03
1.4517213e+03
1.2271119e+03
1.8383885e+03
1.0187008e+03
1.6645345e+03
8.3897192e+02
1.9128503e+03
7.1045837e+02
1.8910759e+03
6.6248279e+02
1.2310100e+03
1.2794547e+03
1.3634268e+03
1.4480468e+03
7.1035162e+02
1.5329294e+03
1.6179810e+03
8.3873596e+02
1.7031128e+03
1.2439642e+03
1.2899470e+03
1.3697379e+03
1.0182959e+03
1.7882289e+03
1.4501277e+03
1.5307655e+03
1.8735072e+03
1.6115675e+03
1.2264915e+03
1.6924510e+03
1.9570652e+03
1.4508379e+03
1.7733206e+03
1.9368750e+03
1.7021945e+03
1.4631162e+03
1.8543636e+03
1.2305752e+03
1.0133490e+03
1.6822992e+03
8.2411682e+02
1.9336035e+03
6.8699872e+02
1.9127465e+03
6.3527008e+02
1.2101384e+03
1.2613342e+03
1.3500586e+03
1.4396089e+03
6.8692719e+02
1.5295342e+03
1.6197026e+03
8.2394458e+02
1.7099933e+03
1.2243496e+03
1.2729808e+03
1.3573337e+03
1.0130306e+03
1.8002858e+03
1.4424342e+03
1.5278760e+03
1.8907251e+03
1.6135444e+03
1.2300618e+03
1.6993301e+03
1.9795089e+03
1.4623610e+03
1.7851169e+03
1.9606278e+03
1.7220757e+03
1.4755690e+03
1.8710636e+03
1.2349403e+03
1.7011589e+03
1.0086385e+03
1.9552765e+03
8.0941840e+02
6.6295886e+02
1.9355123e+03
6.0704376e+02
1.1885702e+03
1.2426063e+03
1.3362533e+03
6.6291986e+02
1.4309292e+03
1.5261063e+03
1.6216066e+03
8.0930383e+02
1.7172722e+03
1.2039954e+03
1.2553662e+03
1.3444515e+03
1.0083972e+03
1.8129551e+03
1.4344551e+03
1.5249059e+03
1.9087666e+03
1.6156516e+03
1.2345219e+03
1.7065519e+03
2.0029811e+03
1.4749275e+03
1.7974675e+03
1.9856030e+03
1.7431886e+03
1.4891487e+03
1.8885256e+03
1.2402921e+03
1.7211738e+03
1.0046751e+03
1.9779135e+03
7.9498694e+02
6.3838452e+02
1.9594281e+03
5.7778424e+02
1.1663046e+03
1.2232683e+03
1.3220094e+03
6.3837573e+02
1.4220116e+03
1.5226560e+03
7.9492462e+02
1.6237097e+03
1.7249727e+03
1.1829012e+03
1.2371016e+03
1.3310911e+03
1.0045022e+03
1.4261949e+03
1.8262662e+03
1.5218658e+03
1.6179065e+03
1.2399574e+03
1.9276666e+03
1.7141405e+03
2.0275238e+03
1.4886075e+03
1.8104026e+03
2.0118539e+03
1.7655922e+03
1.9067870e+03
1.5039248e+03
1.2467188e+03
1.7424050e+03
1.0015743e+03
2.0015588e+03
7.8095312e+02
6.1334070e+02
1.9845488e+03
5.4747974e+02
1.1433430e+03
1.2033203e+03
1.3073287e+03
6.1336011e+02
1.4128639e+03
1.5191984e+03
7.8093793e+02
1.6260336e+03
1.7331211e+03
1.1610696e+03
1.2181875e+03
1.3172538e+03
1.0014620e+03
1.4176604e+03
1.8402498e+03
1.5187693e+03
1.6203290e+03
1.2464578e+03
1.9474607e+03
1.7221221e+03
2.0531782e+03
1.5034719e+03
1.8239539e+03
2.0394319e+03
1.9258849e+03
1.7893441e+03
1.5199661e+03
1.2543108e+03
1.7649133e+03
9.9946057e+02
2.0262563e+03
7.6746985e+02
5.8791711e+02
2.0109293e+03
5.1613031e+02
1.1196890e+03
1.1827649e+03
5.8796295e+02
1.2922178e+03
1.4034999e+03
1.5157545e+03
7.6749713e+02
1.6286051e+03
1.1385051e+03
1.1986270e+03
1.7417487e+03
1.3029448e+03
9.9940167e+02
1.4088623e+03
1.8549392e+03
1.5156339e+03
1.6229430e+03
1.2541143e+03
1.9681841e+03
1.7305253e+03
2.0799836e+03
1.5195907e+03
1.8381543e+03
1.9458567e+03
2.0683850e+03
1.8144972e+03
1.5373384e+03
1.7887572e+03
1.2631587e+03
2.0520491e+03
9.9846600e+02
7.5471472e+02
2.0386229e+03
5.6223523e+02
4.8375409e+02
1.0953462e+03
5.6230609e+02
1.1616075e+03
1.2766886e+03
1.3939415e+03
1.5123547e+03
7.5478021e+02
1.6314598e+03
1.1152140e+03
1.1784257e+03
1.7508927e+03
1.2881732e+03
9.9845374e+02
1.3998174e+03
1.5124835e+03
1.8703711e+03
1.6257782e+03
1.2630182e+03
1.9898721e+03
1.7393834e+03
1.5370305e+03
2.1079753e+03
1.8530392e+03
1.9667397e+03
2.0987539e+03
1.8410958e+03
1.5561002e+03
1.8139911e+03
1.2733494e+03
2.0789778e+03
9.9872729e+02
7.4289111e+02
2.0676787e+03
5.3645721e+02
4.5039645e+02
5.3655194e+02
1.0703170e+03
1.1398553e+03
1.2607606e+03
1.3842205e+03
7.4299072e+02
1.5090399e+03
1.6346434e+03
1.0912026e+03
1.1575913e+03
1.2729537e+03
9.9875562e+02
1.7605988e+03
1.3905498e+03
1.5093506e+03
1.8865865e+03
1.6288721e+03
1.2732574e+03
2.0125590e+03
1.7487361e+03
1.5558511e+03
1.8686472e+03
2.1371826e+03
1.9885707e+03
2.1305659e+03
1.8691693e+03
1.8406603e+03
1.5762982e+03
1.2849609e+03
2.1070791e+03
1.0003813e+03
7.3222766e+02
2.0981384e+03
5.1079846e+02
4.1614517e+02
5.1091605e+02
1.0445988e+03
1.1175165e+03
1.2444607e+03
1.3743798e+03
7.3235767e+02
1.5058634e+03
1.6382129e+03
1.0664755e+03
1.1361335e+03
1.2573079e+03
1.0004446e+03
1.7709208e+03
1.3810935e+03
1.5062784e+03
1.9036307e+03
1.6322726e+03
1.2849108e+03
2.0362769e+03
1.7586304e+03
1.5760996e+03
1.8850209e+03
2.1676235e+03
2.0113853e+03
2.1638284e+03
1.8987227e+03
1.8687953e+03
1.5979570e+03
1.2980549e+03
2.1363833e+03
1.0035572e+03
7.2297491e+02
2.1300310e+03
4.8554276e+02
3.8115503e+02
4.8568250e+02
1.0181817e+03
1.0945991e+03
1.2278245e+03
1.3644738e+03
7.2313177e+02
1.5028895e+03
1.6422349e+03
1.0410325e+03
1.1140629e+03
1.2412650e+03
1.0036503e+03
1.3714935e+03
1.7819204e+03
1.5033223e+03
1.9215521e+03
1.6360383e+03
1.2980403e+03
1.7691223e+03
2.0610532e+03
1.5978020e+03
1.9022073e+03
2.1993008e+03
2.0352172e+03
2.1985139e+03
1.8984017e+03
1.9297219e+03
1.6210679e+03
2.1669104e+03
1.3126627e+03
1.0083633e+03
7.1539636e+02
2.1633643e+03
4.6106256e+02
3.4568768e+02
4.6122403e+02
9.9104590e+02
1.0711100e+03
1.2108948e+03
1.3545651e+03
7.1557660e+02
1.5001886e+03
1.0148654e+03
1.6467794e+03
1.0913892e+03
1.2248625e+03
1.0084816e+03
1.3618063e+03
1.7936606e+03
1.5005480e+03
1.9403970e+03
1.6402375e+03
1.3126780e+03
1.7802750e+03
2.0869053e+03
1.6209500e+03
1.9202560e+03
2.2321914e+03
2.0600950e+03
1.9294468e+03
2.2345457e+03
1.9620752e+03
1.6455693e+03
2.1986636e+03
1.3287670e+03
1.0148680e+03
2.1981123e+03
7.0975079e+02
4.3784244e+02
3.1017642e+02
4.3802518e+02
9.6316412e+02
1.0470558e+03
1.1937211e+03
7.0995081e+02
1.3447180e+03
1.4978250e+03
9.8795667e+02
1.0681212e+03
1.6519055e+03
1.2081451e+03
1.0150071e+03
1.3520962e+03
1.8061918e+03
1.4980277e+03
1.6449421e+03
1.3288074e+03
1.9601987e+03
1.7921525e+03
2.1138313e+03
1.6454828e+03
1.9392147e+03
2.2662341e+03
2.0860371e+03
1.9618391e+03
2.2717725e+03
1.9956055e+03
2.2316206e+03
1.6713213e+03
1.3462733e+03
1.0230690e+03
2.2341987e+03
7.0625989e+02
4.1650089e+02
2.7532672e+02
4.1670441e+02
9.3451324e+02
1.0224501e+03
1.1763584e+03
7.0647620e+02
1.3349869e+03
1.4958354e+03
9.6028064e+02
1.0442675e+03
1.6576339e+03
1.1911641e+03
1.0232250e+03
1.3424288e+03
1.8195245e+03
1.4958271e+03
1.6502119e+03
1.3463346e+03
1.9809557e+03
1.8048064e+03
2.1417942e+03
1.6712614e+03
1.9591176e+03
2.3013130e+03
2.1130425e+03
1.9954027e+03
2.3099397e+03
2.0300160e+03
2.2657214e+03
1.6980687e+03
1.3649690e+03
1.0328481e+03
2.2714731e+03
7.0505627e+02
3.9779559e+02
2.4225838e+02
3.9801892e+02
9.0510614e+02
9.9733380e+02
7.0528510e+02
1.1588733e+03
1.3254039e+03
1.4942002e+03
9.3181586e+02
1.0198430e+03
1.1739758e+03
1.0330173e+03
1.6639053e+03
1.3328604e+03
1.4939845e+03
1.8335848e+03
1.6560688e+03
1.3650472e+03
2.0025917e+03
1.8182483e+03
2.1706924e+03
1.6980310e+03
1.9799637e+03
2.3372305e+03
2.1410750e+03
2.0298414e+03
2.3486523e+03
2.3008501e+03
2.0648455e+03
1.7253912e+03
1.3844645e+03
1.0439080e+03
2.3096814e+03
7.0610541e+02
3.8257333e+02
2.1265031e+02
3.8281418e+02
8.7506323e+02
9.7182422e+02
7.0634277e+02
1.1413687e+03
1.3159760e+03
1.4928123e+03
9.0257684e+02
9.9489038e+02
1.1566484e+03
1.0440870e+03
1.6705259e+03
1.3234237e+03
1.4924806e+03
1.8481450e+03
1.6624543e+03
1.3845566e+03
2.0248901e+03
1.8324045e+03
2.2003135e+03
1.7253724e+03
2.0016775e+03
2.1700332e+03
2.3736765e+03
2.0646948e+03
2.3368103e+03
2.3873357e+03
2.0994150e+03
1.7526381e+03
1.4041165e+03
1.0556898e+03
2.3484297e+03
7.0910333e+02
3.7159415e+02
1.8868872e+02
3.7184793e+02
8.4475250e+02
7.0934491e+02
9.4622107e+02
1.1240563e+03
1.3067231e+03
8.7268549e+02
9.6952838e+02
1.4914764e+03
1.1392863e+03
1.0558755e+03
1.3141274e+03
1.6771226e+03
1.4912096e+03
1.8627386e+03
1.6691753e+03
1.4042200e+03
2.0473942e+03
1.8470479e+03
1.7526355e+03
2.0240425e+03
2.2302522e+03
2.1997048e+03
2.4101812e+03
2.0992852e+03
2.3732917e+03
2.4251978e+03
2.1327676e+03
1.7788414e+03
1.4229330e+03
2.3871433e+03
1.0672854e+03
7.1337195e+02
3.6516321e+02
1.7236938e+02
3.6542258e+02
7.1361340e+02
8.1504913e+02
9.2121783e+02
1.1074252e+03
1.2978138e+03
8.4251093e+02
9.4405804e+02
1.4900002e+03
1.1221024e+03
1.0674749e+03
1.3049923e+03
1.6831639e+03
1.4899769e+03
1.8765938e+03
1.6758586e+03
1.4230459e+03
1.8617117e+03
2.0692720e+03
1.7788534e+03
2.0466014e+03
2.2597822e+03
2.2296848e+03
2.4460498e+03
2.1326562e+03
2.4098247e+03
2.4612107e+03
2.1635994e+03
1.8026130e+03
1.4394833e+03
2.4250308e+03
1.0773914e+03
7.1781519e+02
3.6268106e+02
1.6408005e+02
3.6293741e+02
7.1805249e+02
7.8778125e+02
8.9828442e+02
1.0925770e+03
1.2898862e+03
8.1292957e+02
9.1917377e+02
1.1055870e+03
1.0775823e+03
1.4885042e+03
1.2961879e+03
1.6881846e+03
1.4885905e+03
1.6819731e+03
1.4396042e+03
1.8886964e+03
1.8756239e+03
2.0891965e+03
1.8026390e+03
2.0685220e+03
2.2876594e+03
2.2592461e+03
2.4802729e+03
2.1635054e+03
2.4457144e+03
2.4941404e+03
2.1901997e+03
1.8220410e+03
1.4518929e+03
2.4610654e+03
1.0844281e+03
7.2107922e+02
3.6254419e+02
1.6178384e+02
3.6279071e+02
7.2130920e+02
7.6644922e+02
8.8029346e+02
1.0817780e+03
7.8576935e+02
1.2846523e+03
8.9634595e+02
1.0908419e+03
1.0846183e+03
1.4880953e+03
1.2883523e+03
1.6924768e+03
1.4871708e+03
1.6870533e+03
1.4520212e+03
1.8982489e+03
1.8877701e+03
2.1054255e+03
1.8220814e+03
2.0884771e+03
2.3119128e+03
2.2871438e+03
2.5114062e+03
2.1901243e+03
2.4799509e+03
2.5227239e+03
2.2104390e+03
1.8347115e+03
2.4940132e+03
1.4581509e+03
1.0870975e+03
7.2216638e+02
3.6280743e+02
1.6192191e+02
3.6304175e+02
7.2238770e+02
7.5721191e+02
8.7238934e+02
1.0791415e+03
7.6452893e+02
8.7844586e+02
1.2857207e+03
1.0801320e+03
1.0872861e+03
1.2831960e+03
1.4920293e+03
1.4868241e+03
1.6984524e+03
1.6913918e+03
1.4582866e+03
1.9061177e+03
1.8973539e+03
2.1166653e+03
1.8347677e+03
2.1047244e+03
2.3299092e+03
2.3114067e+03
2.2103840e+03
2.5375669e+03
2.5110894e+03
2.5461306e+03
2.2220566e+03
1.8382711e+03
2.5226123e+03
1.4573800e+03
1.0858944e+03
7.2167810e+02
3.6265897e+02
1.6171808e+02
3.6288495e+02
7.2189282e+02
7.7014490e+02
8.8280182e+02
1.0910939e+03
7.5536133e+02
8.7061316e+02
1.0775658e+03
1.0860817e+03
1.2992378e+03
1.2843234e+03
1.5068087e+03
1.4908036e+03
1.7127159e+03
1.6974001e+03
1.4575231e+03
1.9176124e+03
1.9052435e+03
2.1253079e+03
1.8383444e+03
2.1159736e+03
2.3401909e+03
2.3294033e+03
2.2220259e+03
2.5571370e+03
2.5372471e+03
2.5656423e+03
2.2241106e+03
1.8332533e+03
2.5460327e+03
1.4535413e+03
1.0857723e+03
7.2349969e+02
3.6387973e+02
1.6142795e+02
3.6410941e+02
7.2371552e+02
8.1948340e+02
9.2314935e+02
7.6832751e+02
8.8106647e+02
1.1258988e+03
1.0895583e+03
1.0859608e+03
1.3336370e+03
1.2978707e+03
1.5419283e+03
1.5056050e+03
1.7462229e+03
1.7116816e+03
1.4536903e+03
1.9461030e+03
1.9167524e+03
2.1446826e+03
1.8333427e+03
2.1246233e+03
2.3512073e+03
2.3396824e+03
2.2241057e+03
2.5739707e+03
2.5568076e+03
2.5889111e+03
2.2241885e+03
2.5655562e+03
1.8332979e+03
1.4625175e+03
1.0987622e+03
7.3434198e+02
3.7033228e+02
1.6465576e+02
3.7058789e+02
7.3457654e+02
9.2463251e+02
8.1763379e+02
1.0048016e+03
9.2140137e+02
1.1929830e+03
1.1243518e+03
1.0989583e+03
1.4004008e+03
1.3322522e+03
1.6064166e+03
1.5407120e+03
1.8082452e+03
1.7451876e+03
1.4626675e+03
2.0083992e+03
1.9452523e+03
1.8333909e+03
2.2074993e+03
2.1440110e+03
2.4058313e+03
2.3507034e+03
2.2241990e+03
2.6269089e+03
2.5736313e+03
2.6524021e+03
2.5888335e+03
2.2733809e+03
1.8891423e+03
1.5162062e+03
1.1371239e+03
7.5781024e+02
3.8423502e+02
1.7491893e+02
3.8455203e+02
7.5809705e+02
9.2262518e+02
1.0806603e+03
1.0029520e+03
1.1328038e+03
1.1913308e+03
1.1373479e+03
1.3180416e+03
1.3989243e+03
1.5127278e+03
1.6051416e+03
1.7006583e+03
1.8071840e+03
1.5163484e+03
1.8932230e+03
2.0075479e+03
2.1009011e+03
1.8892008e+03
2.2068428e+03
2.3323577e+03
2.4053467e+03
2.5923022e+03
2.2733367e+03
2.6265540e+03
2.8878396e+03
2.6523062e+03
2.9693340e+03
2.5680134e+03
2.0835403e+03
1.6231831e+03
1.1916880e+03
7.8585089e+02
4.0290143e+02
1.9619408e+02
4.0332767e+02
7.8624579e+02
1.0783035e+03
1.1306725e+03
1.0518640e+03
1.2387544e+03
1.3161298e+03
1.1919857e+03
1.4474500e+03
1.5110759e+03
1.6116705e+03
1.6992856e+03
1.7768684e+03
1.8921152e+03
1.6233358e+03
1.9591506e+03
2.1000344e+03
2.1725520e+03
2.0834907e+03
2.3317029e+03
2.4381626e+03
2.5918132e+03
2.7978027e+03
2.5676484e+03
2.8873782e+03
3.3375425e+03
2.9688167e+03
3.6827561e+03
3.0594104e+03
2.2818398e+03
1.7047316e+03
1.2274121e+03
8.0241840e+02
4.1312747e+02
1.9938033e+02
4.1366373e+02
8.0292615e+02
1.0492856e+03
1.2362109e+03
1.4452445e+03
1.2277996e+03
1.6098579e+03
1.7754091e+03
1.9580006e+03
1.7049219e+03
2.1716682e+03
2.2817114e+03
2.4374956e+03
2.7972837e+03
3.0585376e+03
3.3369023e+03
3.6823306e+03
CELL_DATA 3400
FIELD FieldData 0
